    1C
    1UUSER                                                              
    1UDATE              15.july.2016                                    
    1UTIME              11:52:10                                        
    1UHOST                                                              
    1UPGM               CalculiX                                        
    1UDIR                                                               
    1UDBN                                                               
    1UMAT    1MECHANICALMATERIAL                                        
    2C                           273                                     1
 -1         1 1.00000E+01 1.00000E+01 0.00000E+00
 -1         2 1.00000E+01 1.00000E+01 1.00000E+01
 -1         3 1.00000E+01 0.00000E+00 0.00000E+00
 -1         4 1.00000E+01 0.00000E+00 1.00000E+01
 -1         5 0.00000E+00 1.00000E+01 0.00000E+00
 -1         6 0.00000E+00 1.00000E+01 1.00000E+01
 -1         7 0.00000E+00 0.00000E+00 0.00000E+00
 -1         8 0.00000E+00 0.00000E+00 1.00000E+01
 -1         9 0.00000E+00 3.27000E+00 1.00000E+01
 -1        10 0.00000E+00 6.55000E+00 1.00000E+01
 -1        11 3.27000E+00 1.00000E+01 1.00000E+01
 -1        12 6.75000E+00 1.00000E+01 1.00000E+01
 -1        13 1.00000E+01 3.52000E+00 1.00000E+01
 -1        14 1.00000E+01 6.64000E+00 1.00000E+01
 -1        15 3.30000E+00 0.00000E+00 1.00000E+01
 -1        16 6.81000E+00 0.00000E+00 1.00000E+01
 -1        17 0.00000E+00 3.31000E+00 0.00000E+00
 -1        18 0.00000E+00 6.46000E+00 0.00000E+00
 -1        19 3.27000E+00 1.00000E+01 0.00000E+00
 -1        20 6.75000E+00 1.00000E+01 0.00000E+00
 -1        21 1.00000E+01 3.40000E+00 0.00000E+00
 -1        22 1.00000E+01 6.57000E+00 0.00000E+00
 -1        23 3.27000E+00 0.00000E+00 0.00000E+00
 -1        24 6.75000E+00 0.00000E+00 0.00000E+00
 -1        25 1.00000E+01 1.00000E+01 3.46000E+00
 -1        26 1.00000E+01 1.00000E+01 6.78000E+00
 -1        27 0.00000E+00 1.00000E+01 3.25000E+00
 -1        28 0.00000E+00 1.00000E+01 6.75000E+00
 -1        29 1.00000E+01 0.00000E+00 3.31000E+00
 -1        30 1.00000E+01 0.00000E+00 6.91000E+00
 -1        31 0.00000E+00 0.00000E+00 3.20000E+00
 -1        32 0.00000E+00 0.00000E+00 6.70000E+00
 -1        33 2.67001E+00 3.50270E+00 1.00000E+01
 -1        34 4.73661E+00 6.70869E+00 1.00000E+01
 -1        35 6.30929E+00 3.61183E+00 1.00000E+01
 -1        36 2.64481E+00 3.47206E+00 0.00000E+00
 -1        37 4.74991E+00 6.67979E+00 0.00000E+00
 -1        38 6.26878E+00 3.44519E+00 0.00000E+00
 -1        39 5.15902E+00 1.00000E+01 3.03611E+00
 -1        40 7.08166E+00 1.00000E+01 5.86540E+00
 -1        41 3.71315E+00 1.00000E+01 6.37295E+00
 -1        42 3.38806E+00 0.00000E+00 2.59218E+00
 -1        43 6.87299E+00 0.00000E+00 4.78479E+00
 -1        44 3.45473E+00 0.00000E+00 6.30213E+00
 -1        45 1.00000E+01 3.63795E+00 3.67039E+00
 -1        46 1.00000E+01 4.12680E+00 7.10096E+00
 -1        47 1.00000E+01 6.89769E+00 5.12838E+00
 -1        48 0.00000E+00 3.55716E+00 3.65292E+00
 -1        49 0.00000E+00 3.49668E+00 7.32388E+00
 -1        50 0.00000E+00 6.74274E+00 5.16767E+00
 -1        51 7.17864E+00 6.90565E+00 3.53884E+00
 -1        52 7.15583E+00 4.66632E+00 6.92229E+00
 -1        53 5.58026E+00 3.50663E+00 3.69601E+00
 -1        54 3.25234E+00 4.96795E+00 5.57304E+00
 -1        55 0.00000E+00 1.63500E+00 1.00000E+01
 -1        56 0.00000E+00 4.91000E+00 1.00000E+01
 -1        57 0.00000E+00 8.27500E+00 1.00000E+01
 -1        58 1.63500E+00 1.00000E+01 1.00000E+01
 -1        59 5.01000E+00 1.00000E+01 1.00000E+01
 -1        60 8.37500E+00 1.00000E+01 1.00000E+01
 -1        61 1.00000E+01 1.76000E+00 1.00000E+01
 -1        62 1.00000E+01 5.08000E+00 1.00000E+01
 -1        63 1.00000E+01 8.32000E+00 1.00000E+01
 -1        64 1.65000E+00 0.00000E+00 1.00000E+01
 -1        65 5.05500E+00 0.00000E+00 1.00000E+01
 -1        66 8.40500E+00 0.00000E+00 1.00000E+01
 -1        67 0.00000E+00 1.65500E+00 0.00000E+00
 -1        68 0.00000E+00 4.88500E+00 0.00000E+00
 -1        69 0.00000E+00 8.23000E+00 0.00000E+00
 -1        70 1.63500E+00 1.00000E+01 0.00000E+00
 -1        71 5.01000E+00 1.00000E+01 0.00000E+00
 -1        72 8.37500E+00 1.00000E+01 0.00000E+00
 -1        73 1.00000E+01 1.70000E+00 0.00000E+00
 -1        74 1.00000E+01 4.98500E+00 0.00000E+00
 -1        75 1.00000E+01 8.28500E+00 0.00000E+00
 -1        76 1.63500E+00 0.00000E+00 0.00000E+00
 -1        77 5.01000E+00 0.00000E+00 0.00000E+00
 -1        78 8.37500E+00 0.00000E+00 0.00000E+00
 -1        79 1.00000E+01 1.00000E+01 1.73000E+00
 -1        80 1.00000E+01 1.00000E+01 5.12000E+00
 -1        81 1.00000E+01 1.00000E+01 8.39000E+00
 -1        82 0.00000E+00 1.00000E+01 1.62500E+00
 -1        83 0.00000E+00 1.00000E+01 5.00000E+00
 -1        84 0.00000E+00 1.00000E+01 8.37500E+00
 -1        85 1.00000E+01 0.00000E+00 1.65500E+00
 -1        86 1.00000E+01 0.00000E+00 5.11000E+00
 -1        87 1.00000E+01 0.00000E+00 8.45500E+00
 -1        88 0.00000E+00 0.00000E+00 1.60000E+00
 -1        89 0.00000E+00 0.00000E+00 4.95000E+00
 -1        90 0.00000E+00 0.00000E+00 8.35000E+00
 -1        91 1.33500E+00 1.75135E+00 1.00000E+01
 -1        92 2.98500E+00 1.75135E+00 1.00000E+01
 -1        93 1.33500E+00 3.38635E+00 1.00000E+01
 -1        94 1.33500E+00 5.02635E+00 1.00000E+01
 -1        95 1.63500E+00 8.27500E+00 1.00000E+01
 -1        96 4.00331E+00 8.35435E+00 1.00000E+01
 -1        97 5.74331E+00 8.35435E+00 1.00000E+01
 -1        98 8.37500E+00 8.32000E+00 1.00000E+01
 -1        99 8.40500E+00 1.76000E+00 1.00000E+01
 -1       100 8.15464E+00 5.12591E+00 1.00000E+01
 -1       101 8.15464E+00 3.56591E+00 1.00000E+01
 -1       102 6.55964E+00 1.80591E+00 1.00000E+01
 -1       103 4.80464E+00 1.80591E+00 1.00000E+01
 -1       104 2.36831E+00 6.62935E+00 1.00000E+01
 -1       105 7.36831E+00 6.67435E+00 1.00000E+01
 -1       106 4.48965E+00 3.55726E+00 1.00000E+01
 -1       107 5.52295E+00 5.16026E+00 1.00000E+01
 -1       108 3.70331E+00 5.10570E+00 1.00000E+01
 -1       109 1.32240E+00 1.73603E+00 0.00000E+00
 -1       110 1.32240E+00 3.39103E+00 0.00000E+00
 -1       111 1.32240E+00 4.96603E+00 0.00000E+00
 -1       112 1.63500E+00 8.23000E+00 0.00000E+00
 -1       113 5.74996E+00 8.33990E+00 0.00000E+00
 -1       114 4.00996E+00 8.33990E+00 0.00000E+00
 -1       115 8.37500E+00 8.28500E+00 0.00000E+00
 -1       116 8.37500E+00 1.70000E+00 0.00000E+00
 -1       117 8.13439E+00 3.42259E+00 0.00000E+00
 -1       118 8.13439E+00 5.00759E+00 0.00000E+00
 -1       119 6.50939E+00 1.72259E+00 0.00000E+00
 -1       120 4.76939E+00 1.72259E+00 0.00000E+00
 -1       121 2.95740E+00 1.73603E+00 0.00000E+00
 -1       122 2.37496E+00 6.56990E+00 0.00000E+00
 -1       123 7.37496E+00 6.62490E+00 0.00000E+00
 -1       124 4.45679E+00 3.45862E+00 0.00000E+00
 -1       125 3.69736E+00 5.07592E+00 0.00000E+00
 -1       126 5.50935E+00 5.06249E+00 0.00000E+00
 -1       127 1.63500E+00 1.00000E+01 1.62500E+00
 -1       128 4.21451E+00 1.00000E+01 1.51806E+00
 -1       129 5.95451E+00 1.00000E+01 1.51806E+00
 -1       130 8.37500E+00 1.00000E+01 1.73000E+00
 -1       131 8.54083E+00 1.00000E+01 4.66270E+00
 -1       132 8.54083E+00 1.00000E+01 6.32270E+00
 -1       133 8.37500E+00 1.00000E+01 8.39000E+00
 -1       134 1.63500E+00 1.00000E+01 8.37500E+00
 -1       135 5.23158E+00 1.00000E+01 8.18647E+00
 -1       136 3.49158E+00 1.00000E+01 8.18647E+00
 -1       137 1.85658E+00 1.00000E+01 6.56147E+00
 -1       138 1.85658E+00 1.00000E+01 4.81147E+00
 -1       139 7.57951E+00 1.00000E+01 3.24806E+00
 -1       140 6.91583E+00 1.00000E+01 7.93270E+00
 -1       141 2.57951E+00 1.00000E+01 3.14306E+00
 -1       142 4.43609E+00 1.00000E+01 4.70453E+00
 -1       143 5.39741E+00 1.00000E+01 6.11917E+00
 -1       144 6.12034E+00 1.00000E+01 4.45076E+00
 -1       145 1.69403E+00 0.00000E+00 1.29609E+00
 -1       146 3.32903E+00 0.00000E+00 1.29609E+00
 -1       147 5.06903E+00 0.00000E+00 1.29609E+00
 -1       148 8.37500E+00 0.00000E+00 1.65500E+00
 -1       149 8.43650E+00 0.00000E+00 5.84740E+00
 -1       150 8.43650E+00 0.00000E+00 4.04740E+00
 -1       151 8.40500E+00 0.00000E+00 8.45500E+00
 -1       152 1.65000E+00 0.00000E+00 8.35000E+00
 -1       153 3.37737E+00 0.00000E+00 8.15106E+00
 -1       154 5.13237E+00 0.00000E+00 8.15106E+00
 -1       155 1.72737E+00 0.00000E+00 6.50106E+00
 -1       156 1.72737E+00 0.00000E+00 4.75106E+00
 -1       157 6.81150E+00 0.00000E+00 2.39240E+00
 -1       158 6.84150E+00 0.00000E+00 7.39240E+00
 -1       159 1.69403E+00 0.00000E+00 2.89609E+00
 -1       160 3.42140E+00 0.00000E+00 4.44716E+00
 -1       161 5.13053E+00 0.00000E+00 3.68849E+00
 -1       162 5.16386E+00 0.00000E+00 5.54346E+00
 -1       163 1.00000E+01 1.70000E+00 1.65500E+00
 -1       164 1.00000E+01 1.81897E+00 3.49020E+00
 -1       165 1.00000E+01 1.81897E+00 5.29020E+00
 -1       166 1.00000E+01 1.76000E+00 8.45500E+00
 -1       167 1.00000E+01 3.82340E+00 8.55048E+00
 -1       168 1.00000E+01 5.38340E+00 8.55048E+00
 -1       169 1.00000E+01 8.32000E+00 8.39000E+00
 -1       170 1.00000E+01 8.28500E+00 1.73000E+00
 -1       171 1.00000E+01 8.44885E+00 5.95419E+00
 -1       172 1.00000E+01 8.44885E+00 4.29419E+00
 -1       173 1.00000E+01 6.73385E+00 2.56419E+00
 -1       174 1.00000E+01 5.10397E+00 1.83520E+00
 -1       175 1.00000E+01 3.51897E+00 1.83520E+00
 -1       176 1.00000E+01 2.06340E+00 7.00548E+00
 -1       177 1.00000E+01 3.88237E+00 5.38568E+00
 -1       178 1.00000E+01 6.76885E+00 7.56419E+00
 -1       179 1.00000E+01 5.51225E+00 6.11467E+00
 -1       180 1.00000E+01 5.26782E+00 4.39939E+00
 -1       181 0.00000E+00 1.65500E+00 1.60000E+00
 -1       182 0.00000E+00 1.77858E+00 5.17646E+00
 -1       183 0.00000E+00 1.77858E+00 3.42646E+00
 -1       184 0.00000E+00 1.74834E+00 8.66194E+00
 -1       185 0.00000E+00 3.38334E+00 8.66194E+00
 -1       186 0.00000E+00 5.02334E+00 8.66194E+00
 -1       187 0.00000E+00 8.27500E+00 8.37500E+00
 -1       188 0.00000E+00 8.23000E+00 1.62500E+00
 -1       189 0.00000E+00 8.37137E+00 4.20883E+00
 -1       190 0.00000E+00 8.37137E+00 5.95883E+00
 -1       191 0.00000E+00 6.60137E+00 2.58383E+00
 -1       192 0.00000E+00 3.43358E+00 1.82646E+00
 -1       193 0.00000E+00 1.74834E+00 7.01194E+00
 -1       194 0.00000E+00 6.64637E+00 7.58383E+00
 -1       195 0.00000E+00 5.00858E+00 1.82646E+00
 -1       196 0.00000E+00 5.14995E+00 4.41029E+00
 -1       197 0.00000E+00 3.52692E+00 5.48840E+00
 -1       198 0.00000E+00 5.11971E+00 6.24577E+00
 -1       199 6.98291E+00 2.33316E+00 8.46115E+00
 -1       200 8.57791E+00 4.09316E+00 8.46115E+00
 -1       201 6.73256E+00 4.13907E+00 8.46115E+00
 -1       202 8.57791E+00 2.33316E+00 6.91615E+00
 -1       203 8.57791E+00 4.39656E+00 7.01163E+00
 -1       204 8.13439E+00 3.54157E+00 1.83520E+00
 -1       205 8.13439E+00 1.72259E+00 1.65500E+00
 -1       206 8.58932E+00 8.45283E+00 3.49942E+00
 -1       207 8.58932E+00 6.73783E+00 1.76942E+00
 -1       208 8.58932E+00 6.90167E+00 4.33361E+00
 -1       209 5.20408E+00 4.81713E+00 6.24767E+00
 -1       210 7.16723E+00 5.78599E+00 5.23056E+00
 -1       211 5.43449E+00 7.33316E+00 6.64762E+00
 -1       212 5.21549E+00 5.93680E+00 4.55594E+00
 -1       213 3.48275E+00 7.48397E+00 5.97299E+00
 -1       214 5.44590E+00 8.45283E+00 4.95589E+00
 -1       215 4.41630E+00 4.23729E+00 4.63453E+00
 -1       216 3.35354E+00 2.48397E+00 5.93758E+00
 -1       217 6.36804E+00 4.08648E+00 5.30915E+00
 -1       218 5.30528E+00 2.33316E+00 6.61221E+00
 -1       219 4.51750E+00 1.75332E+00 4.99907E+00
 -1       220 6.37945E+00 5.20614E+00 3.61742E+00
 -1       221 4.20568E+00 7.48397E+00 4.30458E+00
 -1       222 6.16883E+00 8.45283E+00 3.28748E+00
 -1       223 2.37496E+00 8.33990E+00 1.62500E+00
 -1       224 4.95447E+00 8.33990E+00 1.51806E+00
 -1       225 5.96428E+00 6.79272E+00 1.76942E+00
 -1       226 6.96432E+00 8.45283E+00 1.76942E+00
 -1       227 3.01643E+00 1.73603E+00 1.29609E+00
 -1       228 4.00113E+00 5.82387E+00 2.78652E+00
 -1       229 5.16509E+00 5.09321E+00 1.84801E+00
 -1       230 5.92452E+00 3.47591E+00 1.84801E+00
 -1       231 4.11254E+00 3.48934E+00 1.84801E+00
 -1       232 7.13015E+00 8.45283E+00 4.70212E+00
 -1       233 4.82842E+00 1.72259E+00 1.29609E+00
 -1       234 6.57088E+00 1.72259E+00 2.39240E+00
 -1       235 4.48416E+00 1.75332E+00 3.14410E+00
 -1       236 6.22663E+00 1.75332E+00 4.24040E+00
 -1       237 8.58932E+00 5.27180E+00 3.60462E+00
 -1       238 6.72371E+00 5.17542E+00 1.76942E+00
 -1       239 1.69403E+00 1.77858E+00 3.12255E+00
 -1       240 1.72737E+00 1.77858E+00 4.97753E+00
 -1       241 8.54083E+00 8.32000E+00 7.93270E+00
 -1       242 8.54083E+00 8.44885E+00 5.49689E+00
 -1       243 7.11874E+00 7.33316E+00 6.39384E+00
 -1       244 8.57791E+00 5.65316E+00 8.46115E+00
 -1       245 8.57791E+00 5.78201E+00 6.02534E+00
 -1       246 1.33500E+00 3.49969E+00 8.66194E+00
 -1       247 2.96117E+00 4.23532E+00 7.78652E+00
 -1       248 1.62617E+00 4.23231E+00 6.44846E+00
 -1       249 1.62617E+00 5.75897E+00 7.78652E+00
 -1       250 1.33500E+00 1.75135E+00 8.35000E+00
 -1       251 8.57791E+00 4.15213E+00 5.29634E+00
 -1       252 7.79013E+00 3.57229E+00 3.68320E+00
 -1       253 3.32020E+00 2.48397E+00 4.08261E+00
 -1       254 2.94857E+00 4.22000E+00 2.78652E+00
 -1       255 4.22488E+00 8.35435E+00 8.18647E+00
 -1       256 4.88201E+00 1.80591E+00 8.15106E+00
 -1       257 1.62617E+00 5.85534E+00 5.37035E+00
 -1       258 1.62617E+00 4.26256E+00 4.61298E+00
 -1       259 1.72737E+00 1.74834E+00 6.81301E+00
 -1       260 1.85658E+00 8.27500E+00 8.18647E+00
 -1       261 3.99448E+00 5.83832E+00 7.78652E+00
 -1       262 3.06237E+00 1.75135E+00 8.15106E+00
 -1       263 7.01441E+00 2.33316E+00 5.85354E+00
 -1       264 8.43650E+00 1.81897E+00 4.22759E+00
 -1       265 2.37496E+00 6.71126E+00 2.58383E+00
 -1       266 1.32240E+00 5.10740E+00 2.58383E+00
 -1       267 2.57951E+00 8.37137E+00 4.10189E+00
 -1       268 1.85658E+00 8.37137E+00 5.77031E+00
 -1       269 6.95291E+00 7.33316E+00 8.46115E+00
 -1       270 1.32240E+00 3.51461E+00 1.82646E+00
 -1       271 4.78081E+00 4.28989E+00 7.78652E+00
 -1       272 1.32240E+00 1.73603E+00 1.60000E+00
 -1       273 5.94622E+00 5.68751E+00 8.46115E+00
 -3
    3C                           118                                     1
 -1       133    6    0    1
 -2        52        16        13        35       199        99       200       201       102       101
 -1       134    6    0    1
 -2        30        52        13        46       202       200       166       176       203       167
 -1       135    6    0    1
 -2        45        38        21        29       204       117       175       164       205       163
 -1       136    6    0    1
 -2        22        25        51        47       170       206       207       173       172       208
 -1       137    6    0    1
 -2        54        52        51        41       209       210       212       213       211       214
 -1       138    6    0    1
 -2        52        54        53        44       209       215       217       218       216       219
 -1       139    6    0    1
 -2        52        54        51        53       209       212       210       217       215       220
 -1       140    6    0    1
 -2        39        54        51        41       221       212       222       142       213       214
 -1       141    6    0    1
 -2        39        27        19        37       141       127       128       224       223       114
 -1       142    6    0    1
 -2        39        37        20        51       224       113       129       222       225       226
 -1       143    6    0    1
 -2        23        42        36         7       146       227       121        76       145       109
 -1       144    6    0    1
 -2        37        51        54        53       225       212       228       229       220       215
 -1       145    6    0    1
 -2        27         5        19        18        82        70       127       188        69       112
 -1       146    6    0    1
 -2        22        25        20        51       170       130       115       207       206       226
 -1       147    6    0    1
 -2        38        53        37        36       230       229       126       124       231       125
 -1       148    6    0    1
 -2        39        41        51        40       142       214       222       144       143       232
 -1       149    6    0    1
 -2        42        38        53        43       233       230       235       161       234       236
 -1       150    6    0    1
 -2        45        22        38        51       174       118       204       237       207       238
 -1       151    6    0    1
 -2        31        42        48        44       159       239       183       156       160       240
 -1       152    6    0    1
 -2        32        44        31        48       155       156        89       182       240       183
 -1       153    6    0    1
 -2        38        36        42        53       124       227       233       230       231       235
 -1       154    6    0    1
 -2        16        13        30        52        99       166       151       199       200       202
 -1       155    6    0    1
 -2        14        40        47        52       241       242       178       244       243       245
 -1       156    6    0    1
 -2        38        22        37        51       118       123       126       238       207       225
 -1       157    6    0    1
 -2        49        33        54        10       246       247       248       186        94       249
 -1       158    6    0    1
 -2        33        32        15         8       250       152        92        91        90        64
 -1       159    6    0    1
 -2        52        45        53        51       251       252       217       210       237       220
 -1       160    6    0    1
 -2        53        42        54        36       235       253       215       231       227       254
 -1       161    6    0    1
 -2        34        12        41        11        97       135       255        96        59       136
 -1       162    6    0    1
 -2        44        16        35        15       154       102       256       153        65       103
 -1       163    6    0    1
 -2        50        54        10        49       257       249       194       198       248       186
 -1       164    6    0    1
 -2        49        48        54        44       197       258       248       259       240       216
 -1       165    6    0    1
 -2        33        32         8        49       250        90        91       246       193       184
 -1       166    6    0    1
 -2        54        48        49        50       258       197       248       257       196       198
 -1       167    6    0    1
 -2        41        10        54        34       260       249       213       255       104       261
 -1       168    6    0    1
 -2        39        20        25        51       129       130       139       222       226       206
 -1       169    6    0    1
 -2        33        32        49        44       250       193       246       262       155       259
 -1       170    6    0    1
 -2        41        10        34        11       260       104       255       136        95        96
 -1       171    6    0    1
 -2        43        52        30        45       263       202       149       264       251       165
 -1       172    6    0    1
 -2        53        38        37        51       230       126       229       220       238       225
 -1       173    6    0    1
 -2        50        18        37        36       191       122       265       266       111       125
 -1       174    6    0    1
 -2        45        38        53        51       204       230       252       237       238       220
 -1       175    6    0    1
 -2        50        39        41        54       267       142       268       257       221       213
 -1       176    6    0    1
 -2        14        40        52        12       241       243       244        98       140       269
 -1       177    6    0    1
 -2        41        10        11        28       260        95       136       137       187       134
 -1       178    6    0    1
 -2        24        21        29         3       116       163       148        78        73        85
 -1       179    6    0    1
 -2        11        28        10         6       134       187        95        58        84        57
 -1       180    6    0    1
 -2        16        30        13         4       151       166        99        66        87        61
 -1       181    6    0    1
 -2        45        52        30        46       251       202       165       177       203       176
 -1       182    6    0    1
 -2        54        42        53        44       253       235       215       216       160       219
 -1       183    6    0    1
 -2        36        48        54        50       270       258       254       266       196       257
 -1       184    6    0    1
 -2        52        43        53        45       263       236       217       251       264       252
 -1       185    6    0    1
 -2        16        44        35        52       154       256       102       199       218       201
 -1       186    6    0    1
 -2        38        45        43        29       204       264       234       205       164       150
 -1       187    6    0    1
 -2        54        42        48        36       253       239       258       254       227       270
 -1       188    6    0    1
 -2        45        22        21        38       174        74       175       204       118       117
 -1       189    6    0    1
 -2        43        45        30        29       264       165       149       150       164        86
 -1       190    6    0    1
 -2        24        29        21        38       148       163       116       119       205       117
 -1       191    6    0    1
 -2        43        38        53        45       234       230       236       264       204       252
 -1       192    6    0    1
 -2        33        35        54        34       106       271       247       108       107       261
 -1       193    6    0    1
 -2        54        35        33        44       271       106       247       216       256       262
 -1       194    6    0    1
 -2        42        38        43        24       233       234       161       147       119       157
 -1       195    6    0    1
 -2        44        16        43        52       154       158       162       218       199       263
 -1       196    6    0    1
 -2        51        40        47        25       232       242       208       206       131       172
 -1       197    6    0    1
 -2        52        12        40        41       269       140       243       211       135       143
 -1       198    6    0    1
 -2        48        42        54        44       239       253       258       240       160       216
 -1       199    6    0    1
 -2        52        47        45        51       245       180       251       210       208       237
 -1       200    6    0    1
 -2        50        37        18        27       265       122       191       189       223       188
 -1       201    6    0    1
 -2        15        33        35        44        92       106       103       153       262       256
 -1       202    6    0    1
 -2        43        38        29        24       234       205       150       157       119       148
 -1       203    6    0    1
 -2        14        52        13        35       244       200        62       100       201       101
 -1       204    6    0    1
 -2        52        45        47        46       251       180       245       203       177       179
 -1       205    6    0    1
 -2        38        42        36        23       233       227       124       120       146       121
 -1       206    6    0    1
 -2        22        45        47        51       174       180       173       207       237       208
 -1       207    6    0    1
 -2        44        43        53        52       162       236       219       218       263       217
 -1       208    6    0    1
 -2        22        20        25         1       115       130       170        75        72        79
 -1       209    6    0    1
 -2        41        52        51        40       211       210       214       143       243       232
 -1       210    6    0    1
 -2        52        14        13        46       244        62       200       203       168       167
 -1       211    6    0    1
 -2        28        50        27        41       190       189        83       137       268       138
 -1       212    6    0    1
 -2        43        16        30        52       158       151       149       263       199       202
 -1       213    6    0    1
 -2        47        52        40        51       245       243       242       208       210       232
 -1       214    6    0    1
 -2        44        49        48        32       259       197       240       155       193       182
 -1       215    6    0    1
 -2        49        33        10         9       246        94       186       185        93        56
 -1       216    6    0    1
 -2        42        31        36         7       159       272       227       145        88       109
 -1       217    6    0    1
 -2        23        38        42        24       120       233       146        77       119       147
 -1       218    6    0    1
 -2        50        41        10        54       268       260       194       257       213       249
 -1       219    6    0    1
 -2        25        26        40        47        80       132       131       172       171       242
 -1       220    6    0    1
 -2        48        17        18        36       192        68       195       270       110       111
 -1       221    6    0    1
 -2        51        40        25        39       232       131       206       222       144       139
 -1       222    6    0    1
 -2        54        35        52        34       271       201       209       261       107       273
 -1       223    6    0    1
 -2        48        42        31        36       239       159       183       270       227       272
 -1       224    6    0    1
 -2        39        37        19        20       224       114       128       129       113        71
 -1       225    6    0    1
 -2        52        35        54        44       201       271       209       218       256       216
 -1       226    6    0    1
 -2        31        17        36         7       181       110       272        88        67       109
 -1       227    6    0    1
 -2        37        51        39        54       225       222       224       228       212       221
 -1       228    6    0    1
 -2        37        27        19        18       223       127       114       122       188       112
 -1       229    6    0    1
 -2        50        37        27        39       265       223       189       267       224       141
 -1       230    6    0    1
 -2        50        37        54        36       265       228       257       266       125       254
 -1       231    6    0    1
 -2        37        22        20        51       123       115       113       225       207       226
 -1       232    6    0    1
 -2        54        37        50        39       228       265       257       221       224       267
 -1       233    6    0    1
 -2        54        37        53        36       228       229       215       254       125       231
 -1       234    6    0    1
 -2        33        49         8         9       246       184        91        93       185        55
 -1       235    6    0    1
 -2        50        48        18        36       196       195       191       266       270       111
 -1       236    6    0    1
 -2        14        40        12        26       241       140        98       169       132       133
 -1       237    6    0    1
 -2        49        33        44        54       246       262       259       248       247       216
 -1       238    6    0    1
 -2        26        12        14         2       133        98       169        81        60        63
 -1       239    6    0    1
 -2        12        34        52        14        97       273       269        98       105       244
 -1       240    6    0    1
 -2        50        39        27        41       267       141       189       268       142       138
 -1       241    6    0    1
 -2        17        48        31        36       192       183       181       110       270       272
 -1       242    6    0    1
 -2        50        10        41        28       194       260       268       190       187       137
 -1       243    6    0    1
 -2        34        54        33        10       261       247       108       104       249        94
 -1       244    6    0    1
 -2        12        34        41        52        97       255       135       269       273       211
 -1       245    6    0    1
 -2        44        43        42        53       162       161       160       219       236       235
 -1       246    6    0    1
 -2        14        40        26        47       241       132       169       178       242       171
 -1       247    6    0    1
 -2        34        54        41        52       261       213       255       273       209       211
 -1       248    6    0    1
 -2        52        34        35        14       273       107       201       244       105       100
 -1       249    6    0    1
 -2        52        14        46        47       244       168       203       245       178       179
 -1       250    6    0    1
 -2        33        32        44        15       250       155       262        92       152       153
 -3
    1PSTEP                         1           1           1          
    1PGM                1.000000E+00                                  
    1PGK                1.163594E+11                                  
    1PHID                         -1                                  
    1PSUBC                         0                                  
    1PMODE                         1                                  
  100CL  101 5.42901E+04         273                     2    1MODAL      1
 -4  DISP        4    1
 -5  D1          1    2    1    0
 -5  D2          1    2    2    0
 -5  D3          1    2    3    0
 -5  ALL         1    2    0    0    1ALL
 -1         1 5.80047E+01 3.43709E+02 4.88236E+02
 -1         2-3.34970E+02 3.46328E+02 4.89497E+02
 -1         3 3.33638E+02 3.45301E+02 4.89912E+02
 -1         4-5.76343E+01 3.44354E+02 4.88832E+02
 -1         5 0.00000E+00 0.00000E+00 0.00000E+00
 -1         6 0.00000E+00 0.00000E+00 0.00000E+00
 -1         7 0.00000E+00 0.00000E+00 0.00000E+00
 -1         8 0.00000E+00 0.00000E+00 0.00000E+00
 -1         9 0.00000E+00 0.00000E+00 0.00000E+00
 -1        10 0.00000E+00 0.00000E+00 0.00000E+00
 -1        11-2.37695E+02 1.33502E+02 1.67750E+02
 -1        12-3.21922E+02 2.49295E+02 3.39817E+02
 -1        13-1.68154E+02 3.37239E+02 4.96136E+02
 -1        14-2.43553E+02 3.40840E+02 4.93956E+02
 -1        15-4.05655E+01 6.37443E+01 1.16956E+02
 -1        16-5.42787E+01 2.20664E+02 3.24600E+02
 -1        17 0.00000E+00 0.00000E+00 0.00000E+00
 -1        18 0.00000E+00 0.00000E+00 0.00000E+00
 -1        19 4.03848E+01 6.31836E+01 1.11487E+02
 -1        20 5.57073E+01 2.18307E+02 3.19982E+02
 -1        21 2.43397E+02 3.38280E+02 4.91885E+02
 -1        22 1.65582E+02 3.37187E+02 4.96290E+02
 -1        23 2.31760E+02 1.33955E+02 1.64066E+02
 -1        24 3.22383E+02 2.46347E+02 3.42362E+02
 -1        25-9.16786E+01 3.50915E+02 4.79104E+02
 -1        26-2.05670E+02 3.46587E+02 4.80624E+02
 -1        27 0.00000E+00 0.00000E+00 0.00000E+00
 -1        28 0.00000E+00 0.00000E+00 0.00000E+00
 -1        29 2.00592E+02 3.45805E+02 4.81292E+02
 -1        30 7.88122E+01 3.51446E+02 4.80500E+02
 -1        31 0.00000E+00 0.00000E+00 0.00000E+00
 -1        32 0.00000E+00 0.00000E+00 0.00000E+00
 -1        33-1.01150E+02 5.79196E+01 1.18951E+02
 -1        34-1.97981E+02 1.53538E+02 2.36944E+02
 -1        35-1.65124E+02 2.03053E+02 3.11990E+02
 -1        36 1.27261E+02 7.41654E+01 1.31020E+02
 -1        37 1.40834E+02 1.35764E+02 2.25891E+02
 -1        38 2.22599E+02 2.12531E+02 3.16272E+02
 -1        39-7.31534E+01 1.68592E+02 2.21983E+02
 -1        40-1.65768E+02 2.52538E+02 3.40109E+02
 -1        41-1.29666E+02 1.33453E+02 1.51467E+02
 -1        42 1.43432E+02 1.28939E+02 1.43075E+02
 -1        43 1.44497E+02 2.43735E+02 3.27822E+02
 -1        44 7.51729E+01 1.06274E+02 1.25987E+02
 -1        45 8.34125E+01 3.41755E+02 4.84938E+02
 -1        46-5.67270E+01 3.39794E+02 4.86903E+02
 -1        47-5.39742E+01 3.43432E+02 4.81595E+02
 -1        48 0.00000E+00 0.00000E+00 0.00000E+00
 -1        49 0.00000E+00 0.00000E+00 0.00000E+00
 -1        50 0.00000E+00 0.00000E+00 0.00000E+00
 -1        51 3.60274E+00 2.46662E+02 3.50064E+02
 -1        52-5.74532E+01 2.45381E+02 3.51434E+02
 -1        53 6.58299E+01 1.87617E+02 2.64339E+02
 -1        54-9.41259E+00 9.33602E+01 1.31972E+02
 -1        55 0.00000E+00 0.00000E+00 0.00000E+00
 -1        56 0.00000E+00 0.00000E+00 0.00000E+00
 -1        57 0.00000E+00 0.00000E+00 0.00000E+00
 -1        58-1.32718E+02 8.13577E+01 8.98906E+01
 -1        59-2.91826E+02 1.90696E+02 2.50714E+02
 -1        60-3.31976E+02 2.99665E+02 4.18070E+02
 -1        61-1.17254E+02 3.41585E+02 4.92758E+02
 -1        62-2.06274E+02 3.37538E+02 4.95686E+02
 -1        63-2.88510E+02 3.45039E+02 4.90916E+02
 -1        64-2.38024E+01 1.31980E+01 4.13203E+01
 -1        65-4.92954E+01 1.41840E+02 2.18215E+02
 -1        66-5.68626E+01 2.85896E+02 4.10688E+02
 -1        67 0.00000E+00 0.00000E+00 0.00000E+00
 -1        68 0.00000E+00 0.00000E+00 0.00000E+00
 -1        69 0.00000E+00 0.00000E+00 0.00000E+00
 -1        70 2.30829E+01 1.32437E+01 4.47312E+01
 -1        71 5.06834E+01 1.38590E+02 2.14715E+02
 -1        72 5.74594E+01 2.84251E+02 4.08228E+02
 -1        73 2.86685E+02 3.43478E+02 4.90785E+02
 -1        74 2.05269E+02 3.36282E+02 4.94123E+02
 -1        75 1.16174E+02 3.41075E+02 4.92130E+02
 -1        76 1.41140E+02 7.94103E+01 8.98875E+01
 -1        77 2.89434E+02 1.90696E+02 2.52056E+02
 -1        78 3.31317E+02 2.98389E+02 4.19519E+02
 -1        79-2.16394E+01 3.47497E+02 4.84937E+02
 -1        80-1.49013E+02 3.48865E+02 4.77110E+02
 -1        81-2.67850E+02 3.46060E+02 4.87004E+02
 -1        82 0.00000E+00 0.00000E+00 0.00000E+00
 -1        83 0.00000E+00 0.00000E+00 0.00000E+00
 -1        84 0.00000E+00 0.00000E+00 0.00000E+00
 -1        85 2.64925E+02 3.44934E+02 4.87592E+02
 -1        86 1.41337E+02 3.48827E+02 4.77548E+02
 -1        87 1.36380E+01 3.48141E+02 4.86054E+02
 -1        88 0.00000E+00 0.00000E+00 0.00000E+00
 -1        89 0.00000E+00 0.00000E+00 0.00000E+00
 -1        90 0.00000E+00 0.00000E+00 0.00000E+00
 -1        91-4.03516E+01 1.41798E+01 4.54135E+01
 -1        92-8.44677E+01 5.81717E+01 1.20289E+02
 -1        93-5.47278E+01 1.80953E+01 5.84745E+01
 -1        94-6.47083E+01 2.51234E+01 6.37472E+01
 -1        95-1.00434E+02 5.34828E+01 8.83337E+01
 -1        96-2.11957E+02 1.41236E+02 2.03150E+02
 -1        97-2.57136E+02 2.04940E+02 2.90716E+02
 -1        98-2.85167E+02 2.96335E+02 4.19719E+02
 -1        99-1.18000E+02 2.86221E+02 4.16454E+02
 -1       100-2.05014E+02 2.79484E+02 4.08714E+02
 -1       101-1.69427E+02 2.77391E+02 4.07257E+02
 -1       102-1.18519E+02 2.10890E+02 3.18335E+02
 -1       103-1.08759E+02 1.33164E+02 2.17430E+02
 -1       104-1.15885E+02 6.51391E+01 1.18088E+02
 -1       105-2.35626E+02 2.56058E+02 3.71164E+02
 -1       106-1.39311E+02 1.26184E+02 2.11104E+02
 -1       107-1.85685E+02 1.76450E+02 2.74648E+02
 -1       108-1.46594E+02 1.02128E+02 1.78086E+02
 -1       109 8.07877E+01 3.81424E+01 7.34634E+01
 -1       110 6.58207E+01 3.05212E+01 6.86485E+01
 -1       111 5.81065E+01 2.65176E+01 6.17332E+01
 -1       112 5.11175E+01 1.91034E+01 5.89907E+01
 -1       113 1.10503E+02 1.75017E+02 2.71103E+02
 -1       114 9.65176E+01 9.77964E+01 1.69892E+02
 -1       115 1.17277E+02 2.83937E+02 4.13617E+02
 -1       116 2.82672E+02 2.95278E+02 4.20439E+02
 -1       117 2.37651E+02 2.81785E+02 4.08941E+02
 -1       118 2.02068E+02 2.77378E+02 4.08584E+02
 -1       119 2.67873E+02 2.30809E+02 3.30070E+02
 -1       120 2.33023E+02 1.67971E+02 2.41173E+02
 -1       121 1.70793E+02 1.02001E+02 1.51084E+02
 -1       122 8.00996E+01 4.44675E+01 9.68154E+01
 -1       123 1.61968E+02 2.45815E+02 3.65912E+02
 -1       124 1.86259E+02 1.42184E+02 2.22563E+02
 -1       125 1.42478E+02 1.01678E+02 1.76823E+02
 -1       126 1.80579E+02 1.74225E+02 2.72349E+02
 -1       127-1.56394E+01 2.65978E+01 4.02694E+01
 -1       128-2.28397E+01 1.17183E+02 1.64266E+02
 -1       129-2.02009E+01 1.91510E+02 2.70629E+02
 -1       130-2.41200E+01 2.89459E+02 4.06725E+02
 -1       131-1.32864E+02 3.01526E+02 4.13745E+02
 -1       132-1.87128E+02 3.01713E+02 4.16553E+02
 -1       133-2.63078E+02 2.98587E+02 4.14854E+02
 -1       134-8.83331E+01 7.39550E+01 6.13944E+01
 -1       135-2.17346E+02 1.95122E+02 2.49657E+02
 -1       136-1.71673E+02 1.36091E+02 1.54732E+02
 -1       137-7.04434E+01 6.85799E+01 6.29608E+01
 -1       138-5.66714E+01 5.95346E+01 5.60622E+01
 -1       139-8.43772E+01 2.63502E+02 3.63443E+02
 -1       140-2.34931E+02 2.51305E+02 3.39368E+02
 -1       141-4.58348E+01 6.93564E+01 8.37929E+01
 -1       142-1.08550E+02 1.51149E+02 1.84240E+02
 -1       143-1.54809E+02 1.93699E+02 2.46686E+02
 -1       144-1.18257E+02 2.12819E+02 2.81703E+02
 -1       145 1.03902E+02 7.92586E+01 6.79726E+01
 -1       146 1.80435E+02 1.32346E+02 1.52105E+02
 -1       147 2.33067E+02 1.90463E+02 2.45468E+02
 -1       148 2.60926E+02 2.98331E+02 4.15928E+02
 -1       149 1.16095E+02 2.97905E+02 4.09483E+02
 -1       150 1.73953E+02 2.98304E+02 4.11630E+02
 -1       151 1.58171E+01 2.90597E+02 4.09322E+02
 -1       152 1.64140E+01 3.05953E+01 3.99412E+01
 -1       153 3.24759E+01 8.82088E+01 1.19650E+02
 -1       154 3.17866E+01 1.60045E+02 2.22282E+02
 -1       155 3.81280E+01 4.47906E+01 4.67261E+01
 -1       156 5.65264E+01 5.85204E+01 5.06356E+01
 -1       157 2.20010E+02 2.46352E+02 3.33944E+02
 -1       158 6.13690E+01 2.32723E+02 3.22818E+02
 -1       159 7.23964E+01 6.77020E+01 5.80636E+01
 -1       160 1.07560E+02 1.19655E+02 1.32249E+02
 -1       161 1.55832E+02 1.84845E+02 2.32304E+02
 -1       162 1.10017E+02 1.76694E+02 2.27192E+02
 -1       163 2.15682E+02 3.43437E+02 4.88859E+02
 -1       164 1.39591E+02 3.44913E+02 4.82900E+02
 -1       165 7.64367E+01 3.47009E+02 4.80836E+02
 -1       166-4.57057E+01 3.44306E+02 4.89425E+02
 -1       167-1.08836E+02 3.38574E+02 4.92440E+02
 -1       168-1.48029E+02 3.38254E+02 4.92086E+02
 -1       169-2.17700E+02 3.45304E+02 4.88371E+02
 -1       170 3.59279E+01 3.44264E+02 4.88221E+02
 -1       171-1.29472E+02 3.46470E+02 4.79862E+02
 -1       172-6.96924E+01 3.47518E+02 4.79582E+02
 -1       173 4.65943E+01 3.40942E+02 4.86885E+02
 -1       174 1.19529E+02 3.38802E+02 4.91465E+02
 -1       175 1.60893E+02 3.39710E+02 4.90118E+02
 -1       176 4.61857E+00 3.45388E+02 4.84183E+02
 -1       177 1.47049E+01 3.41397E+02 4.83002E+02
 -1       178-1.41580E+02 3.41778E+02 4.87148E+02
 -1       179-5.43058E+01 3.40513E+02 4.84361E+02
 -1       180 1.53370E+01 3.40804E+02 4.83697E+02
 -1       181 0.00000E+00 0.00000E+00 0.00000E+00
 -1       182 0.00000E+00 0.00000E+00 0.00000E+00
 -1       183 0.00000E+00 0.00000E+00 0.00000E+00
 -1       184 0.00000E+00 0.00000E+00 0.00000E+00
 -1       185 0.00000E+00 0.00000E+00 0.00000E+00
 -1       186 0.00000E+00 0.00000E+00 0.00000E+00
 -1       187 0.00000E+00 0.00000E+00 0.00000E+00
 -1       188 0.00000E+00 0.00000E+00 0.00000E+00
 -1       189 0.00000E+00 0.00000E+00 0.00000E+00
 -1       190 0.00000E+00 0.00000E+00 0.00000E+00
 -1       191 0.00000E+00 0.00000E+00 0.00000E+00
 -1       192 0.00000E+00 0.00000E+00 0.00000E+00
 -1       193 0.00000E+00 0.00000E+00 0.00000E+00
 -1       194 0.00000E+00 0.00000E+00 0.00000E+00
 -1       195 0.00000E+00 0.00000E+00 0.00000E+00
 -1       196 0.00000E+00 0.00000E+00 0.00000E+00
 -1       197 0.00000E+00 0.00000E+00 0.00000E+00
 -1       198 0.00000E+00 0.00000E+00 0.00000E+00
 -1       199-5.98606E+01 2.34930E+02 3.40871E+02
 -1       200-1.10164E+02 2.94769E+02 4.27109E+02
 -1       201-1.04154E+02 2.26175E+02 3.32364E+02
 -1       202 9.27577E-01 2.98669E+02 4.21256E+02
 -1       203-5.78676E+01 2.97250E+02 4.24690E+02
 -1       204 1.53383E+02 2.82595E+02 4.05884E+02
 -1       205 2.08308E+02 2.87288E+02 4.05993E+02
 -1       206-4.04657E+01 3.00361E+02 4.18865E+02
 -1       207 7.86208E+01 2.94981E+02 4.26118E+02
 -1       208-2.49911E+01 2.99409E+02 4.22007E+02
 -1       209-3.06012E+01 1.68491E+02 2.41110E+02
 -1       210-2.53154E+01 2.47516E+02 3.50341E+02
 -1       211-9.37063E+01 1.84728E+02 2.55766E+02
 -1       212-6.12227E+00 1.69208E+02 2.39796E+02
 -1       213-5.33578E+01 1.06826E+02 1.45280E+02
 -1       214-7.67316E+01 1.85092E+02 2.48710E+02
 -1       215 1.94057E+01 1.38944E+02 1.96202E+02
 -1       216 1.79417E+01 9.68046E+01 1.32900E+02
 -1       217 9.68804E+00 2.16016E+02 3.06012E+02
 -1       218 1.01155E+01 1.72363E+02 2.42799E+02
 -1       219 6.29259E+01 1.48359E+02 1.97621E+02
 -1       220 3.82227E+01 2.15667E+02 3.08222E+02
 -1       221-2.63818E+01 1.29738E+02 1.80258E+02
 -1       222-3.14121E+01 2.07944E+02 2.88865E+02
 -1       223 1.77383E+01 4.91742E+01 8.16963E+01
 -1       224 3.43367E+01 1.48763E+02 2.21046E+02
 -1       225 6.95064E+01 1.93528E+02 2.86606E+02
 -1       226 2.62778E+01 2.34235E+02 3.35982E+02
 -1       227 1.22248E+02 1.02503E+02 1.38987E+02
 -1       228 3.74943E+01 1.18759E+02 1.74114E+02
 -1       229 9.37365E+01 1.64614E+02 2.45400E+02
 -1       230 1.34290E+02 2.01117E+02 2.89903E+02
 -1       231 1.03941E+02 1.29838E+02 1.90215E+02
 -1       232-7.92394E+01 2.49064E+02 3.43932E+02
 -1       233 1.76752E+02 1.69350E+02 2.34606E+02
 -1       234 1.65245E+02 2.32876E+02 3.22697E+02
 -1       235 1.07990E+02 1.53474E+02 2.03124E+02
 -1       236 9.92690E+01 2.17140E+02 2.97596E+02
 -1       237 4.27075E+01 2.97574E+02 4.23639E+02
 -1       238 1.09660E+02 2.27073E+02 3.31941E+02
 -1       239 4.28326E+01 5.18587E+01 6.00208E+01
 -1       240 2.47484E+01 4.53107E+01 5.69344E+01
 -1       241-1.94957E+02 3.00958E+02 4.22925E+02
 -1       242-1.10116E+02 3.00465E+02 4.17332E+02
 -1       243-1.02377E+02 2.49105E+02 3.47769E+02
 -1       244-1.47225E+02 2.96728E+02 4.28010E+02
 -1       245-5.53141E+01 2.98286E+02 4.22928E+02
 -1       246-2.64156E+01 2.50135E+01 4.47655E+01
 -1       247-4.17688E+01 7.92192E+01 1.20965E+02
 -1       248-7.92955E+00 3.76929E+01 5.53747E+01
 -1       249-2.93040E+01 3.95764E+01 5.71213E+01
 -1       250-1.00187E+01 2.01809E+01 3.71897E+01
 -1       251 1.03353E+01 2.98102E+02 4.22444E+02
 -1       252 7.98057E+01 2.71501E+02 3.84294E+02
 -1       253 4.94297E+01 1.02005E+02 1.36155E+02
 -1       254 4.58473E+01 8.34299E+01 1.21815E+02
 -1       255-1.45021E+02 1.46476E+02 1.96787E+02
 -1       256-2.51462E+01 1.48795E+02 2.17916E+02
 -1       257-7.60634E+00 4.02198E+01 5.51618E+01
 -1       258 7.38308E+00 3.98394E+01 5.51065E+01
 -1       259 1.02015E+01 3.83515E+01 5.26110E+01
 -1       260-6.48208E+01 6.15531E+01 7.41939E+01
 -1       261-7.75989E+01 1.22711E+02 1.80122E+02
 -1       262-1.67420E+01 7.58935E+01 1.17031E+02
 -1       263 3.72408E+01 2.42791E+02 3.39532E+02
 -1       264 1.10933E+02 2.96175E+02 4.13632E+02
 -1       265 1.84401E+01 5.77730E+01 8.72943E+01
 -1       266 1.80041E+01 2.87593E+01 4.40122E+01
 -1       267-2.85748E+01 7.00179E+01 9.17353E+01
 -1       268-3.54924E+01 5.17752E+01 6.33624E+01
 -1       269-1.77598E+02 2.43959E+02 3.46360E+02
 -1       270 3.52021E+01 3.30266E+01 4.85489E+01
 -1       271-6.38035E+01 1.48529E+02 2.20904E+02
 -1       272 4.77478E+01 4.11701E+01 5.25219E+01
 -1       273-1.28846E+02 1.98632E+02 2.92165E+02
 -3
    1PSTEP                         2           1           1          
    1PGM                1.000000E+00                                  
    1PGK                1.163594E+11                                  
    1PHID                         -1                                  
    1PSUBC                         0                                  
    1PMODE                         1                                  
  100CL  101 5.42901E+04         273                     2    1MODAL      1
 -4  STRESS      6    1
 -5  SXX         1    4    1    1
 -5  SYY         1    4    2    2
 -5  SZZ         1    4    3    3
 -5  SXY         1    4    1    2
 -5  SYZ         1    4    2    3
 -5  SZX         1    4    3    1
 -1         1-1.02267E+04 1.75285E+05-1.85554E+05-1.44486E+05 7.97667E+03-1.62450E+05
 -1         2 1.16583E+05 5.06255E+04 1.18498E+05-4.06264E+04 3.89828E+03-1.05289E+05
 -1         3-1.95418E+05-1.14398E+05-1.32855E+05-1.08260E+05-1.14613E+04-1.23363E+05
 -1         4-3.24018E+03-1.89313E+05 1.22314E+05-1.40330E+05-1.69781E+04-1.23152E+05
 -1         5 4.27694E+06 1.83298E+06 1.83298E+06-2.40155E+05-6.81192E-02 1.58638E+06
 -1         6-2.41382E+07-1.03450E+07-1.03450E+07 4.51490E+06-2.29889E+00 4.51214E+06
 -1         7 2.03607E+07 5.17675E+06 5.76515E+06 2.96038E+06 4.72841E+05 3.36784E+06
 -1         8-5.45260E+06-2.17660E+06-2.28877E+06-2.25613E+05 1.72789E+05 1.57980E+06
 -1         9-1.18745E+07-5.08909E+06-5.08910E+06 4.16633E+05-3.00882E-01 3.31163E+06
 -1        10-1.13619E+07-3.96149E+06-3.13351E+06 1.84094E+06 5.02664E+04 2.76525E+06
 -1        11-8.96917E+06 2.10049E+06 2.11641E+06-4.08011E+05-4.52990E+04-6.83998E+04
 -1        12-2.42702E+06 9.90086E+04 1.17762E+05 8.97729E+04 4.79448E+03 2.21237E+05
 -1        13 2.05316E+05-1.93627E+05 2.46370E+05 2.56046E+05-5.80639E+04-3.33455E+05
 -1        14 1.32031E+05 6.78985E+05 4.09059E+05 2.06563E+05-1.43469E+05-4.44649E+05
 -1        15-1.61957E+06-9.90894E+04-1.56247E+05 4.63547E+05-2.11334E+05 5.58058E+05
 -1        16-5.35845E+05 5.20257E+04 6.73479E+04 3.86375E+05 2.15015E+04 4.76771E+05
 -1        17 1.38465E+07 5.93422E+06 5.93423E+06 1.39371E+06 4.22283E-01 4.17579E+06
 -1        18 1.06720E+07 4.26154E+06 4.35196E+06 8.38232E+05 1.00543E+04 2.75547E+06
 -1        19 1.38016E+06-4.05143E+05-4.73956E+05 5.13559E+05-2.61804E+04 2.20191E+05
 -1        20 4.25709E+05-3.23737E+04-1.36305E+04 3.17198E+05 1.50168E+03 3.49521E+05
 -1        21-1.76996E+05-7.06766E+05-2.79725E+05 2.80153E+05 1.10884E+05-2.48059E+05
 -1        22-2.47241E+05 1.22462E+05-4.14378E+05 3.28039E+05 7.63469E+04-3.82874E+05
 -1        23 7.99281E+06-3.48756E+05-2.00134E+05-8.17955E+04 2.95492E+04-5.47782E+04
 -1        24 2.21498E+06-4.65732E+03-9.20745E+04 6.94237E+04 1.26260E+03 2.16956E+05
 -1        25 1.66092E+05 2.06898E+05-3.72634E+05-2.43567E+05-1.10480E+05 4.12231E+05
 -1        26 1.01088E+05 2.04679E+05 8.37148E+05-1.66657E+05-1.57305E+05 3.22797E+05
 -1        27-5.36518E+06-1.75323E+06-1.80661E+06 9.77769E+05 1.22866E+05 1.75929E+06
 -1        28-1.04117E+07-3.95789E+06-4.45842E+06 3.25673E+06 1.51972E+05 2.10982E+06
 -1        29-1.22159E+05-2.06820E+05-8.04083E+05-3.20744E+05 1.46496E+05 3.53581E+05
 -1        30-6.69417E+04-2.91175E+05 5.18363E+05-2.98366E+05 9.98949E+04 2.56572E+05
 -1        31 9.81362E+06 3.90850E+06 3.88840E+06 2.75386E+06 6.99110E+04 2.25763E+06
 -1        32 6.12312E+06 2.09244E+06 2.13232E+06 1.19493E+06-1.94853E+05 1.31725E+06
 -1        33-6.31160E+06-5.99188E+05 2.59574E+05 1.80693E+06 1.17842E+05 8.23898E+05
 -1        34-4.81391E+06 1.86218E+05 1.73971E+05 1.78467E+06 8.58600E+04 2.65131E+05
 -1        35-1.68204E+06 9.81596E+04 1.61753E+05 1.70898E+06 4.92231E+03 3.87036E+04
 -1        36 8.18857E+06 7.84889E+05-3.38998E+05 2.00386E+06-2.13830E+05 1.07709E+06
 -1        37 3.45815E+06 1.49113E+05-1.22050E+05 1.93159E+06-5.44105E+04 7.05485E+05
 -1        38 2.54535E+06-3.04183E+05-7.29802E+04 1.39029E+06-1.99715E+04 2.73230E+05
 -1        39-1.12323E+06 2.01490E+05 3.73299E+04 3.93797E+05 8.31582E+04 2.60762E+06
 -1        40-1.21417E+06 6.43680E+03 2.40756E+05 1.55544E+05 1.21799E+04 1.88142E+06
 -1        41-5.23966E+06 3.69078E+05-9.35889E+04 4.82865E+05 1.67759E+05 2.72044E+06
 -1        42 6.44457E+06-4.20478E+05-5.17679E+03 2.37276E+05-2.13447E+05 2.33701E+06
 -1        43 1.11295E+06-4.42700E+04-2.44720E+05 9.31849E+04-2.13881E+04 2.22231E+06
 -1        44 2.62312E+06-2.35219E+05 1.87591E+05 5.52927E+05-1.01923E+05 2.91887E+06
 -1        45-2.73377E+04-4.82636E+05-5.59154E+05 1.79017E+05 1.29225E+05 2.34080E+05
 -1        46-2.16781E+02-1.23425E+05 7.90226E+05 8.34575E+04-2.97334E+04 6.24620E+04
 -1        47 3.37716E+04 5.28046E+05 2.44477E+05 7.53589E+04-1.47852E+05 2.07098E+05
 -1        48 2.30056E+06 9.78462E+05 1.14378E+06 1.69956E+06-6.29798E+04 2.12732E+06
 -1        49-1.51732E+06-5.66783E+05-7.66433E+05 1.23694E+06 5.29824E+04 2.01956E+06
 -1        50-2.15603E+06-7.94874E+05-7.30756E+05 1.64110E+06 8.37312E+04 2.25539E+06
 -1        51 1.24567E+05 1.29521E+05-1.53137E+05 1.05786E+06-1.54320E+04 1.60577E+06
 -1        52-7.71483E+05 1.64217E+04 2.11307E+05 1.39100E+06 4.35150E+03 1.47254E+06
 -1        53 1.75381E+06-1.21753E+05-8.64202E+04 1.48882E+06-6.32356E+04 2.17245E+06
 -1        54-5.69804E+05-1.25208E+04 7.21383E+04 2.17514E+06 1.26567E+04 3.11108E+06
 -1        55-8.97527E+06-3.84655E+06-3.84656E+06 1.91026E+05-1.27240E+00 2.55906E+06
 -1        56-1.38873E+07-5.95170E+06-5.95171E+06 8.21596E+05 6.70635E-01 3.61545E+06
 -1        57-1.88220E+07-8.06660E+06-8.06660E+06 3.20344E+06-2.29889E+00 4.43889E+06
 -1        58-1.56822E+07-2.01322E+06-1.80141E+06 1.70080E+06 4.19846E+05 1.84506E+06
 -1        59-4.56940E+06 3.17124E+05 5.86926E+05-1.66505E+05-1.98301E+05-9.25534E+04
 -1        60-8.60914E+05-7.16122E+04-1.21639E+05 1.18942E+05 3.21092E+04 1.32891E+05
 -1        61 1.90952E+05-2.79396E+05 2.25333E+05 9.15566E+04 1.21374E+04-2.25649E+05
 -1        62 4.18806E+04 3.15214E+05 2.39342E+05 2.41352E+05-9.45532E+04-3.27526E+05
 -1        63 2.62506E+05 4.96077E+05 3.02248E+05 1.24884E+05-9.57646E+04-2.92470E+05
 -1        64-2.92277E+06-6.44543E+05-9.03032E+05-8.86820E+03-3.83590E+04 8.51349E+05
 -1        65-8.07390E+05-7.43640E+04-1.23650E+04 4.88813E+05-1.47450E+05 5.33469E+05
 -1        66-2.11833E+05 4.73774E+04-5.22068E+04 1.19995E+05 1.79515E+04 1.89844E+05
 -1        67 1.68937E+07 7.24015E+06 7.24015E+06 1.83703E+06 4.28372E-01 4.45587E+06
 -1        68 1.22759E+07 5.26112E+06 5.26113E+06 1.16083E+06 1.19913E+00 3.77353E+06
 -1        69 8.89332E+06 3.81143E+06 3.81143E+06 3.55302E+04-6.81192E-02 2.25726E+06
 -1        70 2.62619E+06 2.16885E+05 3.03781E+05 2.67953E+05 1.24406E+04 7.89589E+05
 -1        71 8.23900E+05-1.70755E+04-1.71911E+05 5.34261E+05-5.36734E+02 4.78961E+05
 -1        72 1.53421E+05 1.65210E+04 2.36189E+04 8.86217E+04 4.04905E+03 1.41444E+05
 -1        73-1.16689E+05-5.01285E+05-1.77668E+05 1.18518E+05 1.39981E+04-2.32083E+05
 -1        74-3.99533E+05-2.87115E+05-3.27629E+05 2.77142E+05 2.01291E+05-2.48978E+05
 -1        75-2.39478E+05 2.14600E+05-3.12918E+05 1.38651E+05-3.06176E+04-2.60014E+05
 -1        76 1.47078E+07 1.09935E+06 6.77303E+05 1.07238E+06 2.49668E+04 9.76088E+05
 -1        77 5.11494E+06-1.04474E+05-2.06307E+05 3.88732E+04 2.46031E+04 7.95040E+04
 -1        78 7.24114E+05 6.25285E+04 4.25788E+04 5.81047E+04 5.01718E+03 1.18835E+05
 -1        79 1.81825E+05 2.37903E+05-4.01948E+05-1.84709E+05 1.88310E+04 1.79576E+05
 -1        80 3.01802E+05 2.95925E+05 2.70862E+05-1.31261E+05-1.79765E+05 3.62100E+05
 -1        81 6.41737E+04 1.17765E+05 6.05696E+05-1.71161E+05-3.16799E+04 1.64976E+05
 -1        82-2.09935E+06-8.99718E+05-8.99718E+05 3.88128E+05-6.81192E-02 1.37646E+06
 -1        83-9.03167E+06-3.87073E+06-3.87073E+06 2.54344E+06-2.01137E+00 1.79358E+06
 -1        84-1.68294E+07-7.21264E+06-7.21264E+06 4.16661E+06-2.29889E+00 3.17145E+06
 -1        85-1.72785E+05-2.21052E+05-6.38967E+05-2.26477E+05 6.38883E+04 1.40347E+05
 -1        86-2.78037E+05-2.50527E+05-2.02579E+05-2.00485E+05 2.52156E+05 3.90656E+05
 -1        87-1.03434E+05-2.46897E+05 4.34183E+05-1.72361E+05-1.72491E+04 1.12308E+05
 -1        88 1.41810E+07 4.67459E+06 5.65670E+06 2.73038E+06 3.97298E+05 2.99623E+06
 -1        89 8.89462E+06 3.81199E+06 3.81199E+06 2.23433E+06 1.38040E+00 1.53046E+06
 -1        90 9.32805E+05 1.33455E+05 3.19872E+05 2.08854E+05 1.03085E+05 1.19738E+06
 -1        91-6.42435E+06-1.51416E+06-9.88870E+05 7.52510E+05 1.66309E+05 1.29263E+06
 -1        92-4.41730E+06-4.57045E+05-4.09019E+05 1.21196E+06-7.08741E+04 7.42320E+05
 -1        93-8.40250E+06-2.16018E+06-1.02483E+06 1.07401E+06 5.49502E+04 1.71331E+06
 -1        94-9.43170E+06-2.35358E+06-1.22042E+06 1.77448E+06-7.93250E+04 1.67294E+06
 -1        95-1.06096E+07-9.07521E+05-7.85974E+04 6.67705E+05 1.11710E+05 1.47299E+06
 -1        96-6.97430E+06 2.80594E+05 4.18735E+05 8.31153E+05 8.06678E+04 5.16750E+04
 -1        97-3.59398E+06 2.30106E+05 1.63187E+05 8.43337E+05-2.66503E+04 2.30778E+05
 -1        98-8.86074E+05 3.83188E+05 2.04607E+05 2.10981E+05-3.29715E+04-1.10187E+05
 -1        99 1.15169E+04-9.90770E+03 9.38204E+04 3.44910E+05-1.47692E+04 1.40321E+04
 -1       100-3.23466E+05 3.63096E+05 1.45089E+05 9.71123E+05-1.06479E+05-1.45926E+05
 -1       101-2.06672E+05 9.15554E+04 1.55543E+05 9.94982E+05-6.17058E+04-1.25335E+05
 -1       102-8.21703E+05 7.37889E+04 2.15302E+05 1.00579E+06 8.94351E+01 1.33833E+05
 -1       103-1.53119E+06 2.88749E+03 1.52919E+05 1.22165E+06-6.45884E+04 1.56605E+05
 -1       104-9.02014E+06-1.60400E+06-7.49791E+05 1.95357E+06 6.71107E+04 1.27653E+06
 -1       105-1.62934E+06 4.37484E+05 9.73855E+04 1.02823E+06-8.52687E+03-9.50886E+03
 -1       106-3.39745E+06-1.01981E+05 1.95360E+05 1.89996E+06-7.17313E+03 3.01543E+05
 -1       107-3.13263E+06 1.92847E+05 1.38328E+05 1.80088E+06 6.88582E+04 1.95992E+05
 -1       108-5.22770E+06-4.27592E+05 1.53835E+05 1.85839E+06 6.37424E+04 3.25233E+05
 -1       109 1.40060E+07 2.63807E+06 1.87976E+06 2.34443E+06 2.86067E+04 1.93849E+06
 -1       110 1.12629E+07 3.18852E+06 2.01918E+06 1.69110E+06-7.71217E+04 2.45135E+06
 -1       111 1.00176E+07 2.95565E+06 2.28654E+06 1.43621E+06-1.77334E+05 2.29966E+06
 -1       112 6.27616E+06 1.63777E+06 1.55822E+06 7.71386E+05 1.27786E+05 1.13327E+06
 -1       113 1.29391E+06-1.00318E+05-1.58169E+05 1.16617E+06-1.22339E+05 3.53222E+05
 -1       114 2.67937E+06 1.21129E+05-3.47185E+05 1.41710E+06-1.97797E+04 2.57883E+05
 -1       115-7.69005E+04 8.67687E+04-1.12925E+05 3.82791E+05 4.87658E+04 8.35688E+03
 -1       116 8.63964E+05-2.98938E+05-2.18278E+04 2.57836E+05 1.85394E+04 5.53581E+03
 -1       117 9.03718E+05-4.85315E+05-3.46364E+04 8.39098E+05 2.83147E+03 1.20214E+05
 -1       118 8.00860E+05-2.19336E+05-1.52456E+05 8.80614E+05 1.04140E+04 3.75991E+04
 -1       119 2.49782E+06-2.40600E+05-1.23389E+05 6.93530E+05-1.39514E+04 2.12507E+05
 -1       120 5.37261E+06-2.66197E+05-1.66417E+05 7.76699E+05 3.23484E+04 1.36901E+04
 -1       121 8.03456E+06 1.59453E+05-5.26943E+04 8.21271E+05-1.30937E+05 8.38813E+04
 -1       122 7.07802E+06 1.87294E+06 1.68620E+06 1.54430E+06 6.55800E+04 1.52235E+06
 -1       123 7.63564E+05-1.14361E+05-1.74747E+05 1.24854E+06-2.34403E+04 9.94585E+04
 -1       124 5.28075E+06 1.69271E+05-2.67594E+04 1.71539E+06-1.64327E+05 4.03175E+05
 -1       125 5.79826E+06 4.25022E+05 7.71295E+04 1.93479E+06-1.73369E+05 1.00204E+06
 -1       126 2.51617E+06-1.36825E+05-1.62289E+05 1.72355E+06 8.22324E+03 3.82514E+05
 -1       127-1.95724E+06-1.11000E+06-8.67650E+05 3.93137E+05-6.92633E+04 1.15901E+06
 -1       128 2.81580E+05 1.71309E+05 1.12935E+03 2.99425E+05 4.61688E+04 1.65116E+06
 -1       129 7.31530E+04 1.45000E+05 9.24667E+03 2.61932E+05 7.47578E+04 1.43757E+06
 -1       130 3.99704E+05 5.11577E+04-1.91419E+05 2.13794E+04-4.43058E+04 4.63655E+05
 -1       131-4.24791E+05 7.45744E+04 5.30669E+04-4.20923E+04-6.64804E+04 1.12840E+06
 -1       132-5.32266E+05-6.93268E+03 4.52521E+05 2.47458E+04-8.25970E+04 1.09100E+06
 -1       133-9.24317E+05 2.61711E+04 3.70538E+05-6.75671E+03 9.21618E+03 3.94387E+05
 -1       134-9.52882E+06 4.13176E+05-2.59419E+05 1.47478E+06 9.40510E+04 1.07937E+06
 -1       135-4.09511E+06-1.43446E+04-5.95038E+04 1.42159E+05 3.30409E+04 1.46613E+06
 -1       136-7.54008E+06 6.25034E+05 1.38550E+05 1.46623E+05-1.09415E+05 1.48394E+06
 -1       137-8.18791E+06-1.20884E+06-2.16708E+06 1.70171E+06 2.24686E+05 2.43966E+06
 -1       138-5.77174E+06-4.44980E+05-1.28437E+06 9.03203E+05 2.56388E+05 2.15832E+06
 -1       139-1.82980E+05 1.05408E+05-7.34530E+04 6.66574E+04 2.94984E+04 1.57142E+06
 -1       140-1.95686E+06 9.74633E+04 2.79589E+05 1.46021E+05 9.10523E+04 1.11371E+06
 -1       141-3.28085E+06-3.82987E+05-7.19790E+05 6.83122E+05 2.16594E+05 2.25752E+06
 -1       142-3.13589E+06 2.86202E+05 5.10081E+04 4.68740E+05 1.34130E+05 2.71343E+06
 -1       143-2.83566E+06 8.27007E+04 2.16282E+05 2.48555E+05 1.01050E+05 2.37237E+06
 -1       144-9.82534E+05 1.91460E+04 7.66561E+04 1.47578E+05 6.60498E+04 2.26543E+06
 -1       145 1.26314E+07 6.78885E+05 1.53980E+06 1.28496E+06 9.54975E+04 2.21137E+06
 -1       146 6.94804E+06-4.10128E+05-1.16789E+05-5.79860E+04-2.80906E+04 1.12726E+06
 -1       147 4.69836E+06 5.28350E+04 4.67495E+04 6.71295E+04-6.48693E+04 1.16936E+06
 -1       148 9.16976E+05-6.08064E+04-3.99013E+05-9.87953E+04 6.82553E+04 3.16445E+05
 -1       149 2.85213E+05-2.02297E+05 5.90315E+04-6.51088E+04 5.44346E+04 1.18367E+06
 -1       150 5.32981E+05-2.44028E+04-4.21604E+05-5.80548E+04 3.49261E+04 1.28906E+06
 -1       151-2.80528E+05-4.66598E+04 2.33419E+05 8.49099E+04 6.26983E+04 4.36051E+05
 -1       152 2.33194E+06 4.83314E+05 8.12853E+05 5.84526E+05-2.48739E+05 1.04552E+06
 -1       153 2.69484E+05-1.47340E+05 1.70150E+04 3.73692E+05-3.39494E+04 1.90652E+06
 -1       154 3.05210E+05-1.02904E+05 3.78068E+04 4.01000E+05-3.43586E+04 1.75692E+06
 -1       155 4.75955E+06 8.78345E+05 1.08785E+06 1.01914E+06-1.92339E+05 2.17007E+06
 -1       156 7.03282E+06 1.39692E+06 1.95694E+06 1.58612E+06-2.59610E+05 2.28536E+06
 -1       157 1.73993E+06-3.88053E+04-3.80798E+05 8.87162E+04 1.39009E+04 1.36215E+06
 -1       158-5.17563E+04-1.08470E+05-2.98640E+04 2.03924E+05 1.19586E+04 1.58205E+06
 -1       159 9.00920E+06 1.31500E+06 1.85757E+06 1.33531E+06-2.15287E+05 2.28506E+06
 -1       160 4.70077E+06-4.27768E+05 1.62775E+05 4.48755E+05-1.74354E+05 2.78732E+06
 -1       161 3.30863E+06-1.21352E+05-2.12102E+05 1.97794E+05-5.28339E+04 2.31418E+06
 -1       162 1.94062E+06 3.98652E+04 6.99888E+04 2.38062E+05-8.69259E+04 2.59099E+06
 -1       163-8.98573E+04-4.89552E+05-6.36281E+05-4.12197E+04 1.34006E+05 4.50579E+04
 -1       164-1.27472E+05-4.93407E+05-7.37437E+05-1.83953E+04 1.42046E+05 2.91188E+05
 -1       165-3.56813E+04-4.49057E+05-8.60203E+04-3.85389E+04 1.66108E+05 2.04898E+05
 -1       166 1.01804E+05-3.09908E+05 5.24681E+05-2.58913E+04 7.89932E+03-3.29060E+04
 -1       167 5.52990E+03-1.93017E+05 6.06919E+05 1.40150E+05-4.98942E+04-1.37626E+05
 -1       168-7.24552E+04 3.98016E+05 7.33352E+05 9.25675E+04-1.04991E+05-1.54730E+05
 -1       169 6.82225E+04 4.78024E+05 6.60480E+05 1.84071E+04-1.55351E+05-9.91596E+04
 -1       170 5.29767E+03 2.89659E+05-5.36772E+05 2.91277E+04-8.85014E+03 1.28194E+04
 -1       171 1.12875E+05 5.08862E+05 6.82424E+05 1.30054E+04-1.73966E+05 1.91888E+05
 -1       172 4.89127E+04 3.99297E+05-1.83091E+05-5.31538E+04-1.58090E+05 2.26543E+05
 -1       173 2.33726E+04 3.59195E+05-4.39251E+05 1.57555E+05-3.28506E+04-6.48317E+04
 -1       174-1.01862E+05-2.12856E+05-6.45939E+05 1.68133E+05 1.31540E+05-4.08732E+04
 -1       175-1.41581E+05-6.58957E+05-6.30859E+05 1.57630E+05 1.55655E+05 4.58900E+04
 -1       176 5.11655E+04-3.24197E+05 7.16737E+05-1.49704E+05 2.06721E+04 1.45564E+05
 -1       177 1.35047E+05-3.60322E+05 2.28422E+04 1.23442E+05 4.35271E+04 1.20999E+05
 -1       178 4.50935E+04 7.55566E+05 7.33280E+05 1.40292E+05-1.34938E+05-6.87858E+04
 -1       179 3.78093E+04 3.39006E+05 6.19703E+05 8.08716E+04-7.39422E+04 1.42191E+05
 -1       180 5.27294E+04 7.59644E+03-2.64085E+05 8.48431E+04-2.92114E+03 2.19432E+05
 -1       181 1.01670E+07 4.35728E+06 4.35729E+06 2.01315E+06 3.38581E-02 3.23772E+06
 -1       182 3.94168E+06 1.68930E+06 1.68930E+06 1.64607E+06 5.36763E-01 1.81095E+06
 -1       183 6.21710E+06 2.64156E+06 2.60450E+06 2.33581E+06 1.74917E+04 2.23734E+06
 -1       184-3.26552E+06-1.39951E+06-1.39952E+06 5.89654E+05-5.95534E-01 1.76914E+06
 -1       185-6.16476E+06-2.64205E+06-2.64205E+06 8.15262E+05-3.00882E-01 2.52172E+06
 -1       186-6.55266E+06-2.61814E+06-2.47111E+06 1.45532E+06-1.33489E+05 2.37183E+06
 -1       187-1.03362E+07-4.09868E+06-3.89266E+06 2.60369E+06 2.28037E+05 2.63337E+06
 -1       188 2.87793E+06 1.09960E+06 1.26274E+06 7.25671E+05 3.52083E+04 2.15853E+06
 -1       189-3.81585E+06-1.39291E+06-1.57944E+06 1.60208E+06 1.43626E+05 1.86261E+06
 -1       190-5.96042E+06-2.55448E+06-2.55447E+06 2.22195E+06-1.34255E+00 2.09604E+06
 -1       191 2.98779E+06 1.32509E+06 1.29531E+06 1.14636E+06-1.09179E+04 2.31437E+06
 -1       192 7.61278E+06 3.26263E+06 3.26263E+06 1.53945E+06 4.19239E-01 3.00661E+06
 -1       193 1.99467E+06 8.33165E+05 5.97634E+05 1.17091E+06-1.02377E+05 1.59998E+06
 -1       194-5.11349E+06-1.94606E+06-2.10890E+06 1.74624E+06 8.99240E+04 2.36109E+06
 -1       195 6.04222E+06 2.58953E+06 2.58953E+06 1.30656E+06 2.09953E-01 2.60435E+06
 -1       196-2.92607E+05-7.70543E+04 1.47188E+05 1.44709E+06-2.01586E+04 2.03872E+06
 -1       197 2.45279E+05 1.70474E+05 1.25038E+05 1.48762E+06 7.61462E+03 2.09213E+06
 -1       198-1.79295E+06-7.68408E+05-7.68408E+05 1.47739E+06 1.19477E-01 2.10735E+06
 -1       199-7.04810E+05-4.47168E+04 1.88387E+05 9.13380E+05 3.04630E+04 9.35860E+05
 -1       200-3.07229E+05-7.64098E+04 1.81826E+05 7.66241E+05-2.93521E+04 4.94106E+05
 -1       201-1.36515E+06-6.73675E+03 1.95143E+05 1.50186E+06 4.03300E+04 7.94165E+05
 -1       202-1.45298E+05-8.94542E+04 3.63503E+05 4.78475E+05 3.92763E+04 8.11433E+05
 -1       203-2.66286E+05-4.71272E+04 4.48984E+05 6.94745E+05-1.23204E+04 7.39307E+05
 -1       204 1.10318E+06-3.72148E+05-3.02932E+05 7.59469E+05 5.40798E+04 3.45148E+05
 -1       205 1.10504E+06-2.31517E+05-3.42735E+05 4.64640E+05 5.46774E+04 3.87631E+05
 -1       206-2.63611E+03 9.52468E+04-2.36246E+05 3.22142E+05-8.00191E+04 9.60840E+05
 -1       207 6.15165E+04 1.51163E+05-2.09895E+05 6.68764E+05 3.36290E+04 5.33608E+05
 -1       208-8.64548E+04 2.23910E+05-3.73871E+04 5.28128E+05-5.63744E+04 9.03329E+05
 -1       209-9.40905E+05-8.55849E+04 1.18537E+05 1.85751E+06 1.77653E+04 2.33299E+06
 -1       210-2.58509E+05 1.21558E+05 4.55504E+04 1.23974E+06-1.74889E+03 1.69727E+06
 -1       211-2.79165E+06 1.20398E+05 1.19338E+05 1.04352E+06 9.69790E+04 2.09118E+06
 -1       212-2.09997E+05-4.73507E+04-6.46765E+04 1.69635E+06-1.96903E+04 2.42311E+06
 -1       213-2.98713E+06-1.45730E+05-8.88079E+04 1.49484E+06 1.05833E+05 2.78015E+06
 -1       214-1.95744E+06 2.57113E+05-7.35723E+04 7.99663E+05 5.93636E+04 2.23027E+06
 -1       215 9.51782E+05 1.05583E+05 1.66242E+05 1.80211E+06-5.03229E+04 2.60561E+06
 -1       216 9.26906E+05-1.19417E+04 9.15729E+04 1.53874E+06-5.33535E+04 2.96212E+06
 -1       217 5.45773E+05-1.29007E+05-2.39239E+04 1.46089E+06-8.84428E+04 1.90173E+06
 -1       218 4.76926E+05-8.74787E+04 2.11366E+05 1.04622E+06-3.52075E+04 2.21858E+06
 -1       219 2.06610E+06-1.27240E+05 7.72557E+04 9.82737E+05-9.64727E+04 2.56052E+06
 -1       220 1.01128E+06-4.01278E+04-1.70469E+05 1.36910E+06-9.02195E+04 1.94208E+06
 -1       221-9.67501E+05 8.77336E+03 1.53526E+05 1.49169E+06 3.69346E+04 2.84644E+06
 -1       222-3.85620E+05 1.66283E+05-1.39580E+05 6.78999E+05 5.67962E+04 2.02750E+06
 -1       223 4.17496E+05-1.82787E+05-3.82944E+05 1.30309E+06 5.27846E+04 1.43438E+06
 -1       224 1.24774E+06 1.86997E+05-6.61689E+03 1.10189E+06-5.93322E+04 1.68836E+06
 -1       225 1.26682E+06 2.57369E+04-2.35157E+05 1.49536E+06-5.25581E+04 1.08220E+06
 -1       226 2.90959E+05 7.16869E+04-1.00027E+05 5.92128E+05-1.68119E+03 9.36041E+05
 -1       227 7.00845E+06-7.49774E+04-3.01091E+05 1.02605E+06-2.89374E+05 1.58886E+06
 -1       228 1.52813E+06 6.06019E+04-1.55591E+04 1.94317E+06-4.60655E+04 2.12982E+06
 -1       229 2.23845E+06-9.63360E+02-1.74563E+05 1.67093E+06 3.48522E+03 1.35711E+06
 -1       230 2.18758E+06-2.06164E+05-1.36588E+05 1.46414E+06-9.46099E+03 1.21472E+06
 -1       231 4.48312E+06 2.24150E+05 3.42660E+04 1.76031E+06-1.42774E+05 1.54963E+06
 -1       232-5.02637E+05 1.41379E+05 8.89232E+04 5.82672E+05 9.29499E+03 1.76372E+06
 -1       233 4.77753E+06-1.00088E+05 3.20018E+04 8.51897E+05-6.23144E+04 1.14857E+06
 -1       234 2.00287E+06-1.30769E+05-2.20754E+05 6.92423E+05 2.31014E+04 1.31606E+06
 -1       235 3.86679E+06-1.13998E+05-1.50249E+04 9.36071E+05-7.60786E+04 2.25500E+06
 -1       236 1.46800E+06-8.92137E+04-1.72940E+05 7.69840E+05 1.17478E+03 2.15211E+06
 -1       237 1.99175E+04-1.08882E+05-2.87559E+05 6.31671E+05 9.74387E+04 9.23177E+05
 -1       238 1.32484E+06-5.89590E+04-9.95013E+04 1.31859E+06-3.18454E+04 9.41440E+05
 -1       239 5.09001E+06 3.83522E+05 9.48115E+05 1.13196E+06-1.81895E+05 2.42204E+06
 -1       240 2.83227E+06 1.34555E+05 5.23330E+05 1.17002E+06-1.55810E+05 2.47159E+06
 -1       241-6.64285E+05 2.95185E+05 3.41811E+05 2.06275E+05-5.97716E+04 6.59951E+05
 -1       242-5.07593E+05 2.00025E+05 2.38622E+05 1.36854E+05-1.11420E+05 9.93360E+05
 -1       243-1.12392E+06 1.27230E+05 2.24359E+05 8.19118E+05-1.80357E+04 1.66519E+06
 -1       244-4.30993E+05 2.99231E+05 2.41389E+05 7.47771E+05-7.14489E+04 4.61986E+05
 -1       245-2.69239E+05 2.40577E+05 2.48549E+05 6.70503E+05-6.84915E+04 8.61638E+05
 -1       246-3.83558E+06-4.70526E+05 1.46397E+04 1.43531E+06 1.14297E+05 1.43550E+06
 -1       247-3.14638E+06-3.42660E+05 3.53335E+04 1.90657E+06 1.52689E+05 2.02188E+06
 -1       248-1.03353E+06-1.31099E+05-3.97083E+05 1.74987E+06 3.54892E+04 2.54226E+06
 -1       249-5.26335E+06-1.39173E+06-1.08003E+06 1.94847E+06 3.61983E+04 2.63156E+06
 -1       250-9.12702E+05 2.94434E+05 5.09460E+05 1.39470E+06-1.12344E+05 1.31358E+06
 -1       251-1.72609E+05-1.74258E+05-9.04394E+04 7.39285E+05 6.44094E+04 8.62790E+05
 -1       252 7.35989E+05-2.60981E+05-2.69677E+05 8.98045E+05 6.88349E+03 1.27281E+06
 -1       253 3.29483E+06 1.68948E+05 2.52321E+05 1.44202E+06-8.63045E+04 2.79771E+06
 -1       254 3.57215E+06 4.74573E+05 1.80543E+05 2.05846E+06-1.14924E+05 2.28724E+06
 -1       255-5.15551E+06 1.79225E+05-2.66679E+03 1.09094E+06 9.96359E+04 1.51222E+06
 -1       256-2.88251E+05-1.79089E+05 5.48268E+04 1.09592E+06-1.09429E+04 1.53353E+06
 -1       257-1.09000E+06-2.80678E+05-1.21914E+05 1.86130E+06 2.81959E+04 2.73306E+06
 -1       258 9.12095E+05 5.13113E+05 5.97987E+05 1.90067E+06-1.21259E+05 2.59962E+06
 -1       259 8.11878E+05-2.52078E+05-3.04151E+05 1.02449E+06 4.84001E+04 2.46705E+06
 -1       260-7.96918E+06-1.31614E+06-1.12785E+06 1.27007E+06 2.18182E+05 2.51740E+06
 -1       261-2.81788E+06-5.77423E+04 7.36659E+04 1.92623E+06 8.78069E+04 1.68362E+06
 -1       262-1.57970E+06-2.78924E+05 1.30816E+05 1.23683E+06 4.84174E+04 1.93182E+06
 -1       263 3.10113E+05-8.52794E+04-5.55413E+02 7.36139E+05-3.99691E+04 1.83186E+06
 -1       264 5.89475E+05-2.35041E+05-2.78842E+05 2.09995E+05 2.64620E+04 1.13496E+06
 -1       265 1.19034E+06-8.66190E+04-1.27834E+05 1.74518E+06 1.05300E+05 1.82023E+06
 -1       266 2.93492E+06 2.93556E+05-8.85538E+04 1.80816E+06 9.93954E+04 1.86256E+06
 -1       267-1.78237E+06-2.71940E+05-2.52464E+05 1.22147E+06 1.47633E+04 2.63637E+06
 -1       268-3.73855E+06-6.49253E+04-4.11363E+05 1.06776E+06 9.22680E+04 2.46066E+06
 -1       269-1.88845E+06 1.56985E+05 2.24199E+05 8.00203E+05 1.60057E+03 7.56658E+05
 -1       270 5.52176E+06 1.05403E+06 5.18853E+05 1.92759E+06-4.58979E+04 1.76836E+06
 -1       271-1.72988E+06-3.87361E+04-7.49891E+04 1.92150E+06 6.95361E+03 1.74068E+06
 -1       272 8.39794E+06 1.72637E+06 7.89313E+05 2.24804E+06-2.83485E+04 1.70683E+06
 -1       273-2.61954E+06 1.44600E+05 1.92944E+05 1.57672E+06 6.36542E+04 8.96584E+05
 -3
    1PSTEP                         3           1           1          
    1PGM                1.000000E+00                                  
    1PGK                1.163594E+11                                  
    1PHID                         -1                                  
    1PSUBC                         0                                  
    1PMODE                         1                                  
  100CL  101 5.42901E+04         273                     2    1MODAL      1
 -4  TOSTRAIN    6    1
 -5  EXX         1    4    1    1
 -5  EYY         1    4    2    2
 -5  EZZ         1    4    3    3
 -5  EXY         1    4    1    2
 -5  EYZ         1    4    2    3
 -5  EZX         1    4    3    1
 -1         1-3.57308E-02 1.17010E+00-1.17535E+00-9.39158E-01 5.18484E-02-1.05593E+00
 -1         2 3.29229E-01-9.94928E-02 3.41676E-01-2.64071E-01 2.53388E-02-6.84378E-01
 -1         3-6.06208E-01-7.95837E-02-1.99550E-01-7.03690E-01-7.44983E-02-8.01862E-01
 -1         4 8.42968E-02-1.12517E+00 9.00400E-01-9.12146E-01-1.10357E-01-8.00491E-01
 -1         5 1.58858E+01 1.81270E-05 1.50343E-05-1.56101E+00-4.42774E-07 1.03115E+01
 -1         6-8.96559E+01-8.84809E-05-9.60194E-05 2.93468E+01-1.49428E-05 2.93289E+01
 -1         7 8.53909E+01-1.33051E+01-9.48048E+00 1.92425E+01 3.07347E+00 2.18909E+01
 -1         8-2.05650E+01 7.29075E-01-3.96541E-05-1.46648E+00 1.12313E+00 1.02687E+01
 -1         9-4.41054E+01-1.82888E-05-5.86972E-05 2.70812E+00-1.95573E-06 2.15256E+01
 -1        10-4.61670E+01 1.93568E+00 7.31752E+00 1.19661E+01 3.26732E-01 1.79741E+01
 -1        11-5.11712E+01 2.07816E+01 2.08851E+01-2.65207E+00-2.94443E-01-4.44599E-01
 -1        12-1.24602E+01 3.95892E+00 4.08082E+00 5.83524E-01 3.11641E-02 1.43804E+00
 -1        13 9.47465E-01-1.64566E+00 1.21432E+00 1.66430E+00-3.77415E-01-2.16745E+00
 -1        14-9.71911E-01 2.58329E+00 8.28771E-01 1.34266E+00-9.32546E-01-2.89022E+00
 -1        15-7.71485E+00 2.16828E+00 1.79675E+00 3.01306E+00-1.37367E+00 3.62737E+00
 -1        16-2.85828E+00 9.62873E-01 1.06247E+00 2.51144E+00 1.39760E-01 3.09901E+00
 -1        17 5.14298E+01 2.17954E-05 6.34136E-05 9.05914E+00 2.74484E-06 2.71426E+01
 -1        18 4.04399E+01-1.22831E+00-6.40526E-01 5.44851E+00 6.53531E-02 1.79105E+01
 -1        19 8.21943E+00-3.38501E+00-3.83230E+00 3.33813E+00-1.70172E-01 1.43124E+00
 -1        20 2.19755E+00-7.79986E-01-6.58155E-01 2.06178E+00 9.76092E-03 2.27189E+00
 -1        21 5.94755E-01-2.84875E+00-7.29823E-02 1.82100E+00 7.20744E-01-1.61238E+00
 -1        22-7.98333E-01 1.60474E+00-1.88472E+00 2.13226E+00 4.96255E-01-2.48868E+00
 -1        23 4.07874E+01-1.34328E+01-1.24667E+01-5.31671E-01 1.92070E-01-3.56058E-01
 -1        24 1.12200E+01-3.20764E+00-3.77585E+00 4.51254E-01 8.20693E-03 1.41021E+00
 -1        25 1.07906E+00 1.34430E+00-2.42265E+00-1.58319E+00-7.18120E-01 2.67950E+00
 -1        26-1.05730E+00-3.83958E-01 3.72709E+00-1.08327E+00-1.02248E+00 2.09818E+00
 -1        27-2.14861E+01 1.99152E+00 1.64457E+00 6.35550E+00 7.98629E-01 1.14354E+01
 -1        28-3.94339E+01 2.51567E+00-7.37725E-01 2.11688E+01 9.87821E-01 1.37138E+01
 -1        29 9.05560E-01 3.55261E-01-3.52695E+00-2.08483E+00 9.52226E-01 2.29827E+00
 -1        30-6.75490E-01-2.13301E+00 3.12899E+00-1.93938E+00 6.49317E-01 1.66772E+00
 -1        31 3.73728E+01-1.01052E+00-1.14120E+00 1.79001E+01 4.54421E-01 1.46746E+01
 -1        32 2.42784E+01-1.92094E+00-1.66173E+00 7.76703E+00-1.26654E+00 8.56211E+00
 -1        33-3.10486E+01 6.08209E+00 1.16640E+01 1.17450E+01 7.65974E-01 5.35534E+00
 -1        34-2.46098E+01 7.89100E+00 7.81139E+00 1.16004E+01 5.58090E-01 1.72335E+00
 -1        35-8.80008E+00 2.77123E+00 3.18459E+00 1.11084E+01 3.19950E-02 2.51574E-01
 -1        36 4.02740E+01-7.84992E+00-1.51552E+01 1.30251E+01-1.38990E+00 7.00111E+00
 -1        37 1.72502E+01-4.25859E+00-6.02114E+00 1.25553E+01-3.53668E-01 4.58565E+00
 -1        38 1.32925E+01-5.22947E+00-3.72665E+00 9.03689E+00-1.29814E-01 1.77599E+00
 -1        39-5.97440E+00 2.63631E+00 1.56927E+00 2.55968E+00 5.40528E-01 1.69495E+01
 -1        40-6.44163E+00 1.49230E+00 3.01537E+00 1.01103E+00 7.91694E-02 1.22292E+01
 -1        41-2.66115E+01 9.84526E+00 6.83793E+00 3.13862E+00 1.09043E+00 1.76829E+01
 -1        42 3.28613E+01-1.17615E+01-9.06202E+00 1.54230E+00-1.38740E+00 1.51905E+01
 -1        43 5.99825E+00-1.52370E+00-2.82663E+00 6.05702E-01-1.39023E-01 1.44450E+01
 -1        44 1.31870E+01-5.39216E+00-2.64389E+00 3.59402E+00-6.62498E-01 1.89726E+01
 -1        45 1.42600E+00-1.53344E+00-2.03081E+00 1.16361E+00 8.39966E-01 1.52152E+00
 -1        46-1.00129E+00-1.80214E+00 4.13660E+00 5.42474E-01-1.93267E-01 4.06003E-01
 -1        47-9.89926E-01 2.22286E+00 3.79658E-01 4.89833E-01-9.61036E-01 1.34614E+00
 -1        48 8.31943E+00-2.74198E-01 8.00369E-01 1.10472E+01-4.09368E-01 1.38276E+01
 -1        49-5.58677E+00 5.91712E-01-7.06014E-01 8.04011E+00 3.44385E-01 1.31271E+01
 -1        50-8.49170E+00 3.55810E-01 7.72574E-01 1.06672E+01 5.44253E-01 1.46601E+01
 -1        51 6.58258E-01 6.90459E-01-1.14682E+00 6.87612E+00-1.00308E-01 1.04375E+01
 -1        52-4.19901E+00 9.22372E-01 2.18913E+00 9.04149E+00 2.82847E-02 9.57154E+00
 -1        53 9.08131E+00-3.10985E+00-2.88019E+00 9.67733E+00-4.11032E-01 1.41209E+01
 -1        54-2.93845E+00 6.83894E-01 1.23418E+00 1.41384E+01 8.22688E-02 2.02220E+01
 -1        55-3.33367E+01-1.31126E-05-5.98041E-05 1.24167E+00-8.27059E-06 1.66339E+01
 -1        56-5.15813E+01-2.34651E-05-5.75903E-05 5.34037E+00 4.35913E-06 2.35004E+01
 -1        57-6.99102E+01-8.84809E-05-9.60194E-05 2.08224E+01-1.49428E-05 2.88528E+01
 -1        58-7.26889E+01 1.61593E+01 1.75360E+01 1.10552E+01 2.72900E+00 1.19929E+01
 -1        59-2.42031E+01 7.55933E+00 9.31304E+00-1.08228E+00-1.28896E+00-6.01597E-01
 -1        60-4.01469E+00 1.11577E+00 7.90593E-01 7.73123E-01 2.08710E-01 8.63790E-01
 -1        61 1.03585E+00-2.02141E+00 1.25933E+00 5.95118E-01 7.88933E-02-1.46672E+00
 -1        62-6.22431E-01 1.15424E+00 6.61066E-01 1.56879E+00-6.14596E-01-2.12892E+00
 -1        63 1.15043E-01 1.63325E+00 3.73367E-01 8.11747E-01-6.22470E-01-1.90106E+00
 -1        64-1.22925E+01 2.51599E+00 8.35816E-01-5.76433E-02-2.49333E-01 5.53377E+00
 -1        65-3.90686E+00 8.57812E-01 1.26081E+00 3.17729E+00-9.58427E-01 3.46755E+00
 -1        66-1.05192E+00 6.32946E-01-1.43506E-02 7.79970E-01 1.16684E-01 1.23399E+00
 -1        67 6.27478E+01 2.52144E-05 7.16662E-05 1.19407E+01 2.78442E-06 2.89632E+01
 -1        68 4.55963E+01 1.39188E-05 5.86295E-05 7.54537E+00 7.79437E-06 2.45280E+01
 -1        69 3.30323E+01 1.81270E-05 1.50343E-05 2.30947E-01-4.42774E-07 1.46722E+01
 -1        70 1.23500E+01-3.31054E+00-2.74571E+00 1.74169E+00 8.08640E-02 5.13233E+00
 -1        71 4.40298E+00-1.06336E+00-2.06979E+00 3.47270E+00-3.48877E-03 3.11324E+00
 -1        72 7.06894E-01-1.82954E-01-1.36818E-01 5.76041E-01 2.63188E-02 9.19385E-01
 -1        73 4.34987E-01-2.06489E+00 3.86212E-02 7.70364E-01 9.09877E-02-1.50854E+00
 -1        74-1.07555E+00-3.44833E-01-6.08173E-01 1.80142E+00 1.30839E+00-1.61836E+00
 -1        75-1.04991E+00 1.90159E+00-1.52727E+00 9.01231E-01-1.99014E-01-1.69009E+00
 -1        76 7.08742E+01-1.75809E+01-2.03243E+01 6.97046E+00 1.62284E-01 6.34457E+00
 -1        77 2.60409E+01-7.88532E+00-8.54724E+00 2.52676E-01 1.59920E-01 5.16776E-01
 -1        78 3.46291E+00-8.37397E-01-9.67071E-01 3.77680E-01 3.26117E-02 7.72425E-01
 -1        79 1.15519E+00 1.51970E+00-2.63933E+00-1.20061E+00 1.22402E-01 1.16725E+00
 -1        80 6.58832E-01 6.20629E-01 4.57717E-01-8.53199E-01-1.16847E+00 2.35365E+00
 -1        81-7.64324E-01-4.15978E-01 2.75557E+00-1.11254E+00-2.05920E-01 1.07235E+00
 -1        82-7.79761E+00 1.81270E-05 1.50343E-05 2.52283E+00-4.42774E-07 8.94701E+00
 -1        83-3.35462E+01-5.54443E-05-2.15847E-05 1.65324E+01-1.30739E-05 1.16583E+01
 -1        84-6.25093E+01-8.84809E-05-9.60194E-05 2.70830E+01-1.49428E-05 2.06144E+01
 -1        85 4.26103E-01 1.12368E-01-2.60408E+00-1.47210E+00 4.15274E-01 9.12256E-01
 -1        86-7.10525E-01-5.31712E-01-2.20049E-01-1.30315E+00 1.63901E+00 2.53926E+00
 -1        87-7.98101E-01-1.73061E+00 2.69641E+00-1.12035E+00-1.12119E-01 7.29999E-01
 -1        88 5.54082E+01-6.38362E+00 8.86214E-05 1.77475E+01 2.58244E+00 1.94755E+01
 -1        89 3.30372E+01 2.09226E-05 1.22322E-05 1.45231E+01 8.97260E-06 9.94797E+00
 -1        90 3.98403E+00-1.21174E+00-2.95790E-05 1.35755E+00 6.70053E-01 7.78300E+00
 -1        91-2.83672E+01 3.54902E+00 6.96342E+00 4.89131E+00 1.08101E+00 8.40208E+00
 -1        92-2.07874E+01 4.95425E+00 5.26641E+00 7.87777E+00-4.60682E-01 4.82508E+00
 -1        93-3.72350E+01 3.34009E+00 1.07199E+01 6.98109E+00 3.57176E-01 1.11365E+01
 -1        94-4.17975E+01 4.21030E+00 1.15758E+01 1.15341E+01-5.15612E-01 1.08741E+01
 -1        95-5.15688E+01 1.14947E+01 1.68827E+01 4.34008E+00 7.26116E-01 9.57442E+00
 -1        96-3.59205E+01 1.12363E+01 1.21342E+01 5.40250E+00 5.24341E-01 3.35887E-01
 -1        97-1.85598E+01 6.29672E+00 5.86174E+00 5.48169E+00-1.73227E-01 1.50005E+00
 -1        98-5.31206E+00 2.93814E+00 1.77736E+00 1.37138E+00-2.14315E-01-7.16216E-01
 -1        99-6.82845E-02-2.07544E-01 4.66688E-01 2.24191E+00-9.59996E-02 9.12085E-02
 -1       100-2.37961E+00 2.08305E+00 6.65998E-01 6.31230E+00-6.92114E-01-9.48516E-01
 -1       101-1.40401E+00 5.34470E-01 9.50391E-01 6.46739E+00-4.01088E-01-8.14678E-01
 -1       102-4.54215E+00 1.27855E+00 2.19838E+00 6.53761E+00 5.81328E-04 8.69916E-01
 -1       103-7.88964E+00 2.08184E+00 3.05704E+00 7.94073E+00-4.19824E-01 1.01793E+00
 -1       104-4.15700E+01 6.63487E+00 1.21873E+01 1.26982E+01 4.36219E-01 8.29745E+00
 -1       105-8.94898E+00 4.48534E+00 2.27471E+00 6.68350E+00-5.54246E-02-6.18076E-02
 -1       106-1.71273E+01 4.29324E+00 6.22595E+00 1.23497E+01-4.66253E-02 1.96003E+00
 -1       107-1.61599E+01 5.45569E+00 5.10131E+00 1.17057E+01 4.47578E-01 1.27394E+00
 -1       108-2.57279E+01 5.47284E+00 9.25211E+00 1.20796E+01 4.14325E-01 2.11401E+00
 -1       109 6.32532E+01-1.06383E+01-1.55673E+01 1.52388E+01 1.85943E-01 1.26002E+01
 -1       110 4.85029E+01-3.98050E+00-1.15812E+01 1.09922E+01-5.01291E-01 1.59338E+01
 -1       111 4.22246E+01-3.67793E+00-8.02710E+00 9.33537E+00-1.15267E+00 1.49478E+01
 -1       112 2.65868E+01-3.56270E+00-4.07981E+00 5.01401E+00 8.30606E-01 7.36626E+00
 -1       113 6.85730E+00-2.20520E+00-2.58124E+00 7.58013E+00-7.95205E-01 2.29594E+00
 -1       114 1.37359E+01-2.89263E+00-5.93668E+00 9.21118E+00-1.28568E-01 1.67624E+00
 -1       115-3.45267E-01 7.18582E-01-5.79429E-01 2.48814E+00 3.16978E-01 5.43197E-02
 -1       116 4.80097E+00-2.75790E+00-9.56678E-01 1.67593E+00 1.20506E-01 3.59828E-02
 -1       117 5.29852E+00-3.73020E+00-8.00787E-01 5.45414E+00 1.84046E-02 7.81389E-01
 -1       118 4.56199E+00-2.06929E+00-1.63457E+00 5.72399E+00 6.76909E-02 2.44394E-01
 -1       119 1.30351E+01-4.76465E+00-4.00277E+00 4.50795E+00-9.06842E-02 1.38129E+00
 -1       120 2.75119E+01-9.14027E+00-8.49170E+00 5.04854E+00 2.10265E-01 8.89859E-02
 -1       121 4.00126E+01-1.11755E+01-1.25545E+01 5.33826E+00-8.51093E-01 5.45228E-01
 -1       122 3.00514E+01-3.78163E+00-4.99544E+00 1.00379E+01 4.26270E-01 9.89528E+00
 -1       123 4.25148E+00-1.45503E+00-1.84754E+00 8.11551E+00-1.52362E-01 6.46481E-01
 -1       124 2.61900E+01-7.03464E+00-8.30883E+00 1.11501E+01-1.06813E+00 2.62064E+00
 -1       125 2.82381E+01-6.68797E+00-8.94927E+00 1.25761E+01-1.12690E+00 6.51328E+00
 -1       126 1.30295E+01-4.21494E+00-4.38046E+00 1.12031E+01 5.34511E-02 2.48634E+00
 -1       127-6.81973E+00-1.31268E+00 2.62617E-01 2.55539E+00-4.50212E-01 7.53355E+00
 -1       128 1.14924E+00 4.32480E-01-6.73687E-01 1.94626E+00 3.00097E-01 1.07326E+01
 -1       129 1.34394E-01 6.01403E-01-2.80997E-01 1.70256E+00 4.85926E-01 9.34423E+00
 -1       130 2.20891E+00-5.66395E-02-1.63339E+00 1.38966E-01-2.87988E-01 3.01376E+00
 -1       131-2.31542E+00 9.30458E-01 7.90659E-01-2.73600E-01-4.32123E-01 7.33462E+00
 -1       132-3.32971E+00 8.49547E-02 3.07140E+00 1.60847E-01-5.36880E-01 7.09149E+00
 -1       133-5.21665E+00 9.61524E-01 3.19991E+00-4.39186E-02 5.99052E-02 2.56352E+00
 -1       134-4.78747E+01 1.67482E+01 1.23764E+01 9.58606E+00 6.11331E-01 7.01590E+00
 -1       135-2.03648E+01 6.16019E+00 5.86666E+00 9.24034E-01 2.14766E-01 9.52984E+00
 -1       136-3.88458E+01 1.42275E+01 1.10653E+01 9.53052E-01-7.11199E-01 9.64561E+00
 -1       137-3.58757E+01 9.48827E+00 3.25975E+00 1.10611E+01 1.46046E+00 1.58578E+01
 -1       138-2.62647E+01 8.35927E+00 2.90320E+00 5.87082E+00 1.66652E+00 1.40291E+01
 -1       139-9.62831E-01 9.11688E-01-2.50907E-01 4.33273E-01 1.91740E-01 1.02142E+01
 -1       140-1.03499E+01 3.00322E+00 4.18703E+00 9.49135E-01 5.91840E-01 7.23909E+00
 -1       141-1.47501E+01 4.08603E+00 1.89681E+00 4.44029E+00 1.40786E+00 1.46739E+01
 -1       142-1.61853E+01 6.05833E+00 4.52957E+00 3.04681E+00 8.71842E-01 1.76373E+01
 -1       143-1.46268E+01 4.34258E+00 5.21085E+00 1.61561E+00 6.56822E-01 1.54204E+01
 -1       144-5.05638E+00 1.45455E+00 1.82836E+00 9.59255E-01 4.29323E-01 1.47253E+01
 -1       145 5.98291E+01-1.78624E+01-1.22664E+01 8.35226E+00 6.20733E-01 1.43739E+01
 -1       146 3.55306E+01-1.22975E+01-1.03908E+01-3.76909E-01-1.82589E-01 7.32718E+00
 -1       147 2.33424E+01-6.85348E+00-6.89304E+00 4.36342E-01-4.21650E-01 7.60081E+00
 -1       148 5.27461E+00-1.08098E+00-3.27932E+00-6.42169E-01 4.43660E-01 2.05689E+00
 -1       149 1.64096E+00-1.52785E+00 1.70784E-01-4.23207E-01 3.53825E-01 7.69388E+00
 -1       150 3.33391E+00-2.89079E-01-2.87089E+00-3.77356E-01 2.27020E-01 8.37887E+00
 -1       151-1.68278E+00-1.62636E-01 1.65788E+00 5.51915E-01 4.07539E-01 2.83433E+00
 -1       152 9.71543E+00-2.30061E+00-1.58613E-01 3.79942E+00-1.61680E+00 6.79587E+00
 -1       153 1.54291E+00-1.16645E+00-9.81421E-02 2.42900E+00-2.20671E-01 1.23924E+01
 -1       154 1.62370E+00-1.02905E+00-1.14424E-01 2.60650E+00-2.23331E-01 1.14200E+01
 -1       155 2.08485E+01-4.37937E+00-3.01760E+00 6.62440E+00-1.25020E+00 1.41055E+01
 -1       156 3.01333E+01-6.50003E+00-2.85990E+00 1.03098E+01-1.68747E+00 1.48549E+01
 -1       157 9.32908E+00-2.23273E+00-4.45568E+00 5.76656E-01 9.03557E-02 8.85398E+00
 -1       158-5.12807E-02-4.19919E-01 9.10192E-02 1.32551E+00 7.77307E-02 1.02833E+01
 -1       159 4.02871E+01-9.72514E+00-6.19845E+00 8.67954E+00-1.39937E+00 1.48529E+01
 -1       160 2.39014E+01-9.43416E+00-5.59563E+00 2.91691E+00-1.13330E+00 1.81176E+01
 -1       161 1.70433E+01-5.25155E+00-5.84143E+00 1.28566E+00-3.43420E-01 1.50422E+01
 -1       162 9.53831E+00-2.81659E+00-2.62078E+00 1.54741E+00-5.65019E-01 1.68415E+01
 -1       163 1.23946E+00-1.35855E+00-2.31229E+00-2.67928E-01 8.71039E-01 2.92876E-01
 -1       164 1.20891E+00-1.16967E+00-2.75587E+00-1.19569E-01 9.23299E-01 1.89272E+00
 -1       165 6.24209E-01-2.06273E+00 2.97006E-01-2.50503E-01 1.07970E+00 1.33184E+00
 -1       166 1.86860E-01-2.48927E+00 2.93556E+00-1.68293E-01 5.13456E-02-2.13889E-01
 -1       167-5.93204E-01-1.88376E+00 3.31583E+00 9.10975E-01-3.24312E-01-8.94568E-01
 -1       168-2.05933E+00 9.98733E-01 3.17842E+00 6.01689E-01-6.82439E-01-1.00575E+00
 -1       169-1.36664E+00 1.29707E+00 2.48303E+00 1.19646E-01-1.00978E+00-6.44537E-01
 -1       170 3.97158E-01 2.24551E+00-3.12630E+00 1.89330E-01-5.75259E-02 8.33259E-02
 -1       171-1.22255E+00 1.35136E+00 2.47951E+00 8.45348E-02-1.13078E+00 1.24727E+00
 -1       172-7.97451E-02 2.19775E+00-1.58777E+00-3.45500E-01-1.02758E+00 1.47253E+00
 -1       173 2.36946E-01 2.41979E+00-2.77011E+00 1.02410E+00-2.13529E-01-4.21406E-01
 -1       174 7.78884E-01 5.74239E-02-2.75762E+00 1.09286E+00 8.55009E-01-2.65676E-01
 -1       175 1.22682E+00-2.13612E+00-1.95349E+00 1.02460E+00 1.01176E+00 2.98285E-01
 -1       176-3.32982E-01-2.77284E+00 3.99323E+00-9.73078E-01 1.34369E-01 9.46163E-01
 -1       177 1.18145E+00-2.03844E+00 4.52124E-01 8.02370E-01 2.82926E-01 7.86496E-01
 -1       178-2.00780E+00 2.61027E+00 2.46541E+00 9.11901E-01-8.77096E-01-4.47108E-01
 -1       179-1.24902E+00 7.08762E-01 2.53329E+00 5.25666E-01-4.80625E-01 9.24244E-01
 -1       180 6.48380E-01 3.55015E-01-1.41091E+00 5.51480E-01-1.89874E-02 1.42631E+00
 -1       181 3.77630E+01 2.57337E-05 6.58056E-05 1.30855E+01 2.20078E-07 2.10451E+01
 -1       182 1.46405E+01 1.51240E-05 1.23596E-05 1.06995E+01 3.48896E-06 1.17712E+01
 -1       183 2.32164E+01-2.45978E-02-2.65485E-01 1.51828E+01 1.13696E-01 1.45427E+01
 -1       184-1.21290E+01-1.59003E-05-4.35474E-05 3.83275E+00-3.87097E-06 1.14994E+01
 -1       185-2.28976E+01-1.82888E-05-5.86972E-05 5.29920E+00-1.95573E-06 1.63911E+01
 -1       186-2.51294E+01 4.44982E-01 1.40063E+00 9.45955E+00-8.67676E-01 1.54169E+01
 -1       187-3.96941E+01 8.49914E-01 2.18903E+00 1.69240E+01 1.48224E+00 1.71169E+01
 -1       188 1.08461E+01-7.13015E-01 3.47435E-01 4.71686E+00 2.28854E-01 1.40304E+01
 -1       189-1.46207E+01 1.12837E+00-8.40384E-02 1.04135E+01 9.33572E-01 1.21070E+01
 -1       190-2.21387E+01-4.68635E-05-2.39722E-05 1.44426E+01-8.72656E-06 1.36243E+01
 -1       191 1.10084E+01 2.00817E-01 7.21141E-03 7.45132E+00-7.09661E-02 1.50434E+01
 -1       192 2.82760E+01 2.00859E-05 5.92873E-05 1.00064E+01 2.72505E-06 1.95430E+01
 -1       193 7.82717E+00 2.77363E-01-1.25358E+00 7.61093E+00-6.65452E-01 1.03999E+01
 -1       194-1.94850E+01 1.10330E+00 4.48516E-02 1.13505E+01 5.84506E-01 1.53471E+01
 -1       195 2.24425E+01 1.58309E-05 4.72032E-05 8.49264E+00 1.36469E-06 1.69283E+01
 -1       196-1.56823E+00-1.67144E-01 1.29043E+00 9.40608E+00-1.31031E-01 1.32516E+01
 -1       197 7.83129E-01 2.96895E-01 1.55770E-03 9.66952E+00 4.94950E-02 1.35989E+01
 -1       198-6.65952E+00-5.71314E-06-2.30417E-06 9.60302E+00 7.76599E-07 1.36977E+01
 -1       199-3.73955E+00 5.51050E-01 2.06623E+00 5.93697E+00 1.98009E-01 6.08309E+00
 -1       200-1.69427E+00-1.93945E-01 1.48459E+00 4.98057E+00-1.90789E-01 3.21169E+00
 -1       201-7.10835E+00 1.72133E+00 3.03354E+00 9.76209E+00 2.62145E-01 5.16207E+00
 -1       202-1.13756E+00-7.74579E-01 2.16964E+00 3.11008E+00 2.55296E-01 5.27432E+00
 -1       203-1.93422E+00-5.09682E-01 2.71504E+00 4.51585E+00-8.00823E-02 4.80550E+00
 -1       204 6.52852E+00-3.06111E+00-2.61121E+00 4.93655E+00 3.51519E-01 2.24346E+00
 -1       205 6.38659E+00-2.30105E+00-3.02396E+00 3.02016E+00 3.55403E-01 2.51960E+00
 -1       206 1.98318E-01 8.34557E-01-1.32015E+00 2.09392E+00-5.20124E-01 6.24546E+00
 -1       207 3.95681E-01 9.78382E-01-1.36849E+00 4.34697E+00 2.18588E-01 3.46845E+00
 -1       208-7.12058E-01 1.30531E+00-3.93118E-01 3.43284E+00-3.66433E-01 5.87164E+00
 -1       209-4.75395E+00 8.05629E-01 2.13242E+00 1.20738E+01 1.15474E-01 1.51644E+01
 -1       210-1.54321E+00 9.27228E-01 4.33179E-01 8.05829E+00-1.13678E-02 1.10323E+01
 -1       211-1.43179E+01 4.61046E+00 4.60357E+00 6.78290E+00 6.30363E-01 1.35927E+01
 -1       212-8.81947E-01 1.75257E-01 6.26400E-02 1.10263E+01-1.27987E-01 1.57502E+01
 -1       213-1.45838E+01 3.88525E+00 4.25524E+00 9.71649E+00 6.87916E-01 1.80709E+01
 -1       214-1.00625E+01 4.33209E+00 2.18263E+00 5.19781E+00 3.85863E-01 1.44967E+01
 -1       215 4.35117E+00-1.14912E+00-7.54835E-01 1.17137E+01-3.27099E-01 1.69365E+01
 -1       216 4.51508E+00-1.58743E+00-9.14582E-01 1.00018E+01-3.46798E-01 1.92538E+01
 -1       217 2.95826E+00-1.42781E+00-7.44767E-01 9.49578E+00-5.74878E-01 1.23612E+01
 -1       218 2.19880E+00-1.46983E+00 4.72658E-01 6.80042E+00-2.28848E-01 1.44208E+01
 -1       219 1.04055E+01-3.85124E+00-2.52201E+00 6.38779E+00-6.27073E-01 1.66434E+01
 -1       220 5.37230E+00-1.46186E+00-2.30907E+00 8.89917E+00-5.86427E-01 1.26235E+01
 -1       221-5.08096E+00 1.26483E+00 2.20572E+00 9.69596E+00 2.40075E-01 1.85019E+01
 -1       222-1.96815E+00 1.61922E+00-3.68893E-01 4.41349E+00 3.69175E-01 1.31787E+01
 -1       223 2.93608E+00-9.65762E-01-2.26678E+00 8.47007E+00 3.43100E-01 9.32347E+00
 -1       224 5.96814E+00-9.26703E-01-2.18519E+00 7.16228E+00-3.85659E-01 1.09743E+01
 -1       225 6.64822E+00-1.41881E+00-3.11462E+00 9.71983E+00-3.41628E-01 7.03430E+00
 -1       226 1.49730E+00 7.20366E-02-1.04410E+00 3.84883E+00-1.09277E-02 6.08426E+00
 -1       227 3.56064E+01-1.04359E+01-1.19057E+01 6.66932E+00-1.88093E+00 1.03276E+01
 -1       228 7.57308E+00-1.96584E+00-2.46089E+00 1.26306E+01-2.99426E-01 1.38438E+01
 -1       229 1.14556E+01-3.10065E+00-4.22905E+00 1.08611E+01 2.26540E-02 8.82120E+00
 -1       230 1.14520E+01-4.10730E+00-3.65506E+00 9.51690E+00-6.14965E-02 7.89571E+00
 -1       231 2.20280E+01-5.65533E+00-6.88958E+00 1.14420E+01-9.28032E-01 1.00726E+01
 -1       232-2.85864E+00 1.32747E+00 9.86502E-01 3.78737E+00 6.04174E-02 1.14642E+01
 -1       233 2.39898E+01-7.71474E+00-6.85616E+00 5.53733E+00-4.05043E-01 7.46570E+00
 -1       234 1.05416E+01-3.32701E+00-3.91191E+00 4.50075E+00 1.50159E-01 8.55438E+00
 -1       235 1.95275E+01-6.34764E+00-5.70432E+00 6.08446E+00-4.94511E-01 1.46575E+01
 -1       236 7.73322E+00-2.38865E+00-2.93288E+00 5.00396E+00 7.63608E-03 1.39887E+01
 -1       237 6.94249E-01-1.42948E-01-1.30435E+00 4.10586E+00 6.33352E-01 6.00065E+00
 -1       238 6.86191E+00-2.13281E+00-2.39633E+00 8.57086E+00-2.06995E-01 6.11936E+00
 -1       239 2.34526E+01-7.13958E+00-3.46972E+00 7.35775E+00-1.18232E+00 1.57433E+01
 -1       240 1.31745E+01-4.36062E+00-1.83358E+00 7.60513E+00-1.01276E+00 1.60654E+01
 -1       241-4.27692E+00 1.95963E+00 2.26271E+00 1.34078E+00-3.88515E-01 4.28968E+00
 -1       242-3.19594E+00 1.40358E+00 1.65447E+00 8.89551E-01-7.24233E-01 6.45684E+00
 -1       243-6.14699E+00 1.98549E+00 2.61683E+00 5.32427E+00-1.17232E-01 1.08237E+01
 -1       244-2.96589E+00 1.78056E+00 1.40459E+00 4.86051E+00-4.64418E-01 3.00291E+00
 -1       245-2.07988E+00 1.23392E+00 1.28574E+00 4.35827E+00-4.45194E-01 5.60065E+00
 -1       246-1.84941E+01 3.37878E+00 6.53236E+00 9.32954E+00 7.42929E-01 9.33075E+00
 -1       247-1.52709E+01 2.95327E+00 5.41023E+00 1.23927E+01 9.92482E-01 1.31422E+01
 -1       248-4.37537E+00 1.49042E+00-2.38474E-01 1.13742E+01 2.30680E-01 1.65247E+01
 -1       249-2.26091E+01 2.55643E+00 4.58247E+00 1.26651E+01 2.35289E-01 1.71052E+01
 -1       250-5.76935E+00 2.07703E+00 3.47470E+00 9.06557E+00-7.30235E-01 8.53824E+00
 -1       251-4.66000E-01-4.76718E-01 6.81042E-02 4.80536E+00 4.18661E-01 5.60813E+00
 -1       252 4.47593E+00-2.00437E+00-2.06090E+00 5.83729E+00 4.47427E-02 8.27328E+00
 -1       253 1.58422E+01-4.47598E+00-3.93405E+00 9.37315E+00-5.60980E-01 1.81851E+01
 -1       254 1.68781E+01-3.25617E+00-5.16736E+00 1.33800E+01-7.47009E-01 1.48671E+01
 -1       255-2.60424E+01 8.63339E+00 7.45110E+00 7.09112E+00 6.47633E-01 9.82946E+00
 -1       256-1.25486E+00-5.45307E-01 9.75143E-01 7.12345E+00-7.11286E-02 9.96792E+00
 -1       257-4.84611E+00 4.14482E-01 1.44645E+00 1.20985E+01 1.83273E-01 1.77649E+01
 -1       258 2.89382E+00 3.00444E-01 8.52124E-01 1.23543E+01-7.88183E-01 1.68975E+01
 -1       259 4.89374E+00-2.02198E+00-2.36046E+00 6.65920E+00 3.14601E-01 1.60358E+01
 -1       260-3.61799E+01 7.06483E+00 8.28874E+00 8.25543E+00 1.41818E+00 1.63631E+01
 -1       261-1.41133E+01 3.82761E+00 4.68177E+00 1.25205E+01 5.70745E-01 1.09435E+01
 -1       262-7.67634E+00 7.78706E-01 3.44201E+00 8.03939E+00 3.14713E-01 1.25569E+01
 -1       263 1.67932E+00-8.90733E-01-3.40027E-01 4.78491E+00-2.59799E-01 1.19071E+01
 -1       264 3.71820E+00-1.64115E+00-1.92586E+00 1.36497E+00 1.72003E-01 7.37722E+00
 -1       265 6.27338E+00-2.02685E+00-2.29475E+00 1.13437E+01 6.84447E-01 1.18315E+01
 -1       266 1.43671E+01-2.80177E+00-5.28549E+00 1.17531E+01 6.46070E-01 1.21066E+01
 -1       267-8.12527E+00 1.69256E+00 1.81915E+00 7.93958E+00 9.59616E-02 1.71364E+01
 -1       268-1.79783E+01 5.90025E+00 3.64840E+00 6.94047E+00 5.99742E-01 1.59943E+01
 -1       269-1.00140E+01 3.28131E+00 3.71820E+00 5.20132E+00 1.04037E-02 4.91828E+00
 -1       270 2.52495E+01-3.79077E+00-7.26942E+00 1.25293E+01-2.98336E-01 1.14943E+01
 -1       271-8.47879E+00 2.51362E+00 2.27797E+00 1.24897E+01 4.51984E-02 1.13144E+01
 -1       272 3.82162E+01-5.14902E+00-1.12399E+01 1.46123E+01-1.84265E-01 1.10944E+01
 -1       273-1.36040E+01 4.36289E+00 4.67712E+00 1.02487E+01 4.13752E-01 5.82780E+00
 -3
    1PSTEP                         4           1           1          
    1PGM                1.000000E+00                                  
    1PGK                1.165193E+11                                  
    1PHID                         -1                                  
    1PSUBC                         0                                  
    1PMODE                         2                                  
  100CL  102 5.43274E+04         273                     2    2MODAL      1
 -4  DISP        4    1
 -5  D1          1    2    1    0
 -5  D2          1    2    2    0
 -5  D3          1    2    3    0
 -5  ALL         1    2    0    0    1ALL
 -1         1 3.35029E+02-4.88745E+02 3.47753E+02
 -1         2 5.88964E+01-4.89765E+02 3.44474E+02
 -1         3-5.70807E+01-4.88096E+02 3.43843E+02
 -1         4-3.35528E+02-4.91674E+02 3.44364E+02
 -1         5 0.00000E+00 0.00000E+00 0.00000E+00
 -1         6 0.00000E+00 0.00000E+00 0.00000E+00
 -1         7 0.00000E+00 0.00000E+00 0.00000E+00
 -1         8 0.00000E+00 0.00000E+00 0.00000E+00
 -1         9 0.00000E+00 0.00000E+00 0.00000E+00
 -1        10 0.00000E+00 0.00000E+00 0.00000E+00
 -1        11 3.99627E+01-1.13709E+02 6.56023E+01
 -1        12 5.52977E+01-3.21519E+02 2.18921E+02
 -1        13-1.94901E+02-4.81726E+02 3.47046E+02
 -1        14-8.95536E+01-4.81545E+02 3.52022E+02
 -1        15-2.33803E+02-1.66647E+02 1.34385E+02
 -1        16-3.22758E+02-3.44419E+02 2.49414E+02
 -1        17 0.00000E+00 0.00000E+00 0.00000E+00
 -1        18 0.00000E+00 0.00000E+00 0.00000E+00
 -1        19 2.36385E+02-1.67321E+02 1.31662E+02
 -1        20 3.22047E+02-3.40496E+02 2.49634E+02
 -1        21 8.66042E+01-4.77230E+02 3.49125E+02
 -1        22 1.96803E+02-4.80432E+02 3.48174E+02
 -1        23-3.94774E+01-1.14929E+02 6.35236E+01
 -1        24-5.66512E+01-3.18249E+02 2.18340E+02
 -1        25 2.40083E+02-4.93533E+02 3.41611E+02
 -1        26 1.59128E+02-4.95381E+02 3.38143E+02
 -1        27 0.00000E+00 0.00000E+00 0.00000E+00
 -1        28 0.00000E+00 0.00000E+00 0.00000E+00
 -1        29-1.64404E+02-4.94783E+02 3.37866E+02
 -1        30-2.50973E+02-4.93742E+02 3.39400E+02
 -1        31 0.00000E+00 0.00000E+00 0.00000E+00
 -1        32 0.00000E+00 0.00000E+00 0.00000E+00
 -1        33-1.04744E+02-1.01545E+02 1.00080E+02
 -1        34-7.83251E+01-1.98380E+02 1.52314E+02
 -1        35-1.77071E+02-3.00768E+02 2.27461E+02
 -1        36 5.66329E+01-8.56072E+01 7.60295E+01
 -1        37 1.60207E+02-2.11348E+02 1.73076E+02
 -1        38 8.90746E+01-2.88481E+02 2.13169E+02
 -1        39 2.12575E+02-2.61791E+02 1.72547E+02
 -1        40 1.78198E+02-3.52619E+02 2.36469E+02
 -1        41 1.27216E+02-1.70087E+02 9.58093E+01
 -1        42-1.04150E+02-1.46340E+02 7.66801E+01
 -1        43-1.90793E+02-3.43632E+02 2.28966E+02
 -1        44-1.56704E+02-1.72371E+02 9.96743E+01
 -1        45-1.65763E+01-4.85102E+02 3.41392E+02
 -1        46-8.83861E+01-4.82107E+02 3.42968E+02
 -1        47 6.61636E+01-4.86823E+02 3.40840E+02
 -1        48 0.00000E+00 0.00000E+00 0.00000E+00
 -1        49 0.00000E+00 0.00000E+00 0.00000E+00
 -1        50 0.00000E+00 0.00000E+00 0.00000E+00
 -1        51 9.72017E+01-3.53647E+02 2.49857E+02
 -1        52-5.64417E+01-3.49270E+02 2.48059E+02
 -1        53-1.70183E+01-2.60966E+02 1.82669E+02
 -1        54-6.91657E+00-1.32483E+02 9.32681E+01
 -1        55 0.00000E+00 0.00000E+00 0.00000E+00
 -1        56 0.00000E+00 0.00000E+00 0.00000E+00
 -1        57 0.00000E+00 0.00000E+00 0.00000E+00
 -1        58 2.24237E+01-4.38844E+01 1.31668E+01
 -1        59 5.04186E+01-2.16597E+02 1.39896E+02
 -1        60 5.79485E+01-4.09501E+02 2.85395E+02
 -1        61-2.62105E+02-4.88723E+02 3.45183E+02
 -1        62-1.42170E+02-4.79779E+02 3.49843E+02
 -1        63-1.92689E+01-4.86805E+02 3.48202E+02
 -1        64-1.38617E+02-9.94248E+01 7.26169E+01
 -1        65-2.90826E+02-2.55972E+02 1.90523E+02
 -1        66-3.32496E+02-4.21354E+02 2.98599E+02
 -1        67 0.00000E+00 0.00000E+00 0.00000E+00
 -1        68 0.00000E+00 0.00000E+00 0.00000E+00
 -1        69 0.00000E+00 0.00000E+00 0.00000E+00
 -1        70 1.31446E+02-8.87926E+01 8.04674E+01
 -1        71 2.91380E+02-2.51114E+02 1.91358E+02
 -1        72 3.32000E+02-4.17525E+02 3.00401E+02
 -1        73 2.02329E+01-4.84321E+02 3.46724E+02
 -1        74 1.42952E+02-4.76379E+02 3.48681E+02
 -1        75 2.63525E+02-4.86488E+02 3.47039E+02
 -1        76-2.46185E+01-4.37528E+01 1.32523E+01
 -1        77-5.01721E+01-2.15748E+02 1.38234E+02
 -1        78-5.71196E+01-4.08117E+02 2.83960E+02
 -1        79 2.86526E+02-4.90450E+02 3.46300E+02
 -1        80 2.00822E+02-4.94720E+02 3.37915E+02
 -1        81 1.12791E+02-4.92971E+02 3.42112E+02
 -1        82 0.00000E+00 0.00000E+00 0.00000E+00
 -1        83 0.00000E+00 0.00000E+00 0.00000E+00
 -1        84 0.00000E+00 0.00000E+00 0.00000E+00
 -1        85-1.14101E+02-4.91448E+02 3.41506E+02
 -1        86-2.08120E+02-4.94152E+02 3.35728E+02
 -1        87-2.92929E+02-4.91986E+02 3.43317E+02
 -1        88 0.00000E+00 0.00000E+00 0.00000E+00
 -1        89 0.00000E+00 0.00000E+00 0.00000E+00
 -1        90 0.00000E+00 0.00000E+00 0.00000E+00
 -1        91-7.16451E+01-4.85292E+01 6.08022E+01
 -1        92-1.51018E+02-1.29085E+02 1.20506E+02
 -1        93-5.77210E+01-4.15009E+01 5.68110E+01
 -1        94-4.53995E+01-3.91143E+01 4.64811E+01
 -1        95-1.91192E+01-3.94164E+01 2.90634E+01
 -1        96-2.70520E+01-1.54577E+02 1.11409E+02
 -1        97-2.51457E+01-2.59672E+02 1.83875E+02
 -1        98-2.17179E+01-4.07738E+02 2.90444E+02
 -1        99-2.57796E+02-4.17692E+02 2.98922E+02
 -1       100-1.40153E+02-3.96733E+02 2.88253E+02
 -1       101-1.90109E+02-4.00140E+02 2.89352E+02
 -1       102-2.41146E+02-3.23245E+02 2.39732E+02
 -1       103-2.08007E+02-2.27873E+02 1.79355E+02
 -1       104-4.84748E+01-7.50117E+01 6.70662E+01
 -1       105-8.83743E+01-3.53408E+02 2.56537E+02
 -1       106-1.49032E+02-1.96976E+02 1.61591E+02
 -1       107-1.24871E+02-2.48828E+02 1.91940E+02
 -1       108-1.01032E+02-1.45816E+02 1.25007E+02
 -1       109 1.37938E+01-2.74368E+01 2.17356E+01
 -1       110 2.92841E+01-3.04176E+01 3.36132E+01
 -1       111 3.96920E+01-3.53976E+01 4.18670E+01
 -1       112 8.55257E+01-5.96236E+01 7.21755E+01
 -1       113 2.33626E+02-2.79051E+02 2.13892E+02
 -1       114 1.94833E+02-1.83802E+02 1.54999E+02
 -1       115 2.59114E+02-4.13713E+02 2.99661E+02
 -1       116 2.28743E+01-4.07059E+02 2.88788E+02
 -1       117 8.84105E+01-3.92704E+02 2.85148E+02
 -1       118 1.41769E+02-3.93483E+02 2.87515E+02
 -1       119 2.70602E+01-3.03651E+02 2.15960E+02
 -1       120 2.87772E+01-1.98682E+02 1.41161E+02
 -1       121 2.62737E+01-9.72441E+01 7.13838E+01
 -1       122 8.54883E+01-8.55485E+01 8.48058E+01
 -1       123 1.91779E+02-3.58231E+02 2.64279E+02
 -1       124 7.69060E+01-1.81618E+02 1.41928E+02
 -1       125 1.01400E+02-1.43737E+02 1.24124E+02
 -1       126 1.29009E+02-2.47363E+02 1.92298E+02
 -1       127 9.97129E+01-8.62087E+01 5.38378E+01
 -1       128 2.21509E+02-2.13829E+02 1.49459E+02
 -1       129 2.64679E+02-3.01886E+02 2.14119E+02
 -1       130 2.82677E+02-4.19807E+02 2.96959E+02
 -1       131 2.09988E+02-4.27809E+02 2.94288E+02
 -1       132 1.70265E+02-4.27070E+02 2.91564E+02
 -1       133 1.13532E+02-4.14225E+02 2.85539E+02
 -1       134 5.01916E+01-5.83219E+01 1.77917E+01
 -1       135 1.09260E+02-2.44039E+02 1.54113E+02
 -1       136 9.34259E+01-1.46214E+02 7.97482E+01
 -1       137 6.68210E+01-7.52534E+01 3.18033E+01
 -1       138 8.45507E+01-8.82651E+01 4.08465E+01
 -1       139 2.39182E+02-3.81340E+02 2.64823E+02
 -1       140 1.25856E+02-3.37810E+02 2.27147E+02
 -1       141 1.22585E+02-1.23271E+02 7.21503E+01
 -1       142 1.67344E+02-2.17816E+02 1.32323E+02
 -1       143 1.56840E+02-2.62914E+02 1.66567E+02
 -1       144 1.99024E+02-3.06706E+02 2.03189E+02
 -1       145-4.72128E+01-5.88672E+01 1.85602E+01
 -1       146-7.93484E+01-1.32087E+02 6.91027E+01
 -1       147-9.54896E+01-2.29337E+02 1.43641E+02
 -1       148-1.15609E+02-4.13233E+02 2.83518E+02
 -1       149-2.22286E+02-4.22684E+02 2.89960E+02
 -1       150-1.80853E+02-4.21855E+02 2.86682E+02
 -1       151-2.89405E+02-4.22139E+02 2.95630E+02
 -1       152-1.08703E+02-9.30098E+01 5.39369E+01
 -1       153-1.86606E+02-1.73209E+02 1.14942E+02
 -1       154-2.38504E+02-2.61347E+02 1.79009E+02
 -1       155-8.46433E+01-8.36924E+01 4.25622E+01
 -1       156-7.65266E+01-8.01532E+01 3.38921E+01
 -1       157-1.36391E+02-3.32084E+02 2.21188E+02
 -1       158-2.48535E+02-3.45603E+02 2.37888E+02
 -1       159-5.99283E+01-6.58911E+01 2.60839E+01
 -1       160-1.31404E+02-1.60865E+02 8.72551E+01
 -1       161-1.51145E+02-2.46748E+02 1.52972E+02
 -1       162-1.84001E+02-2.57574E+02 1.62690E+02
 -1       163-3.51736E+01-4.86841E+02 3.43719E+02
 -1       164-8.52168E+01-4.90164E+02 3.39444E+02
 -1       165-1.30078E+02-4.90947E+02 3.37998E+02
 -1       166-2.15399E+02-4.88969E+02 3.44498E+02
 -1       167-1.40250E+02-4.81019E+02 3.45933E+02
 -1       168-8.56141E+01-4.79555E+02 3.47802E+02
 -1       169 3.51051E+01-4.89781E+02 3.44887E+02
 -1       170 2.11534E+02-4.88228E+02 3.45699E+02
 -1       171 1.09832E+02-4.92291E+02 3.39284E+02
 -1       172 1.50927E+02-4.91564E+02 3.39898E+02
 -1       173 1.28607E+02-4.83871E+02 3.43873E+02
 -1       174 8.88308E+01-4.80062E+02 3.46353E+02
 -1       175 3.14004E+01-4.81207E+02 3.45690E+02
 -1       176-1.63788E+02-4.88159E+02 3.41082E+02
 -1       177-5.19792E+01-4.84219E+02 3.40258E+02
 -1       178-5.45838E+00-4.84967E+02 3.44499E+02
 -1       179-1.16282E+01-4.82763E+02 3.41710E+02
 -1       180 2.42601E+01-4.83796E+02 3.41404E+02
 -1       181 0.00000E+00 0.00000E+00 0.00000E+00
 -1       182 0.00000E+00 0.00000E+00 0.00000E+00
 -1       183 0.00000E+00 0.00000E+00 0.00000E+00
 -1       184 0.00000E+00 0.00000E+00 0.00000E+00
 -1       185 0.00000E+00 0.00000E+00 0.00000E+00
 -1       186 0.00000E+00 0.00000E+00 0.00000E+00
 -1       187 0.00000E+00 0.00000E+00 0.00000E+00
 -1       188 0.00000E+00 0.00000E+00 0.00000E+00
 -1       189 0.00000E+00 0.00000E+00 0.00000E+00
 -1       190 0.00000E+00 0.00000E+00 0.00000E+00
 -1       191 0.00000E+00 0.00000E+00 0.00000E+00
 -1       192 0.00000E+00 0.00000E+00 0.00000E+00
 -1       193 0.00000E+00 0.00000E+00 0.00000E+00
 -1       194 0.00000E+00 0.00000E+00 0.00000E+00
 -1       195 0.00000E+00 0.00000E+00 0.00000E+00
 -1       196 0.00000E+00 0.00000E+00 0.00000E+00
 -1       197 0.00000E+00 0.00000E+00 0.00000E+00
 -1       198 0.00000E+00 0.00000E+00 0.00000E+00
 -1       199-1.77676E+02-3.45645E+02 2.47879E+02
 -1       200-1.24988E+02-4.20509E+02 3.01822E+02
 -1       201-1.13548E+02-3.25743E+02 2.37003E+02
 -1       202-1.46050E+02-4.25998E+02 2.98637E+02
 -1       203-7.28354E+01-4.22655E+02 2.99710E+02
 -1       204 3.24009E+01-3.96832E+02 2.83674E+02
 -1       205-3.36049E+01-3.98948E+02 2.79238E+02
 -1       206 1.67596E+02-4.28310E+02 2.99220E+02
 -1       207 1.46199E+02-4.22117E+02 3.03069E+02
 -1       208 8.35710E+01-4.25112E+02 2.98788E+02
 -1       209-2.86437E+01-2.39949E+02 1.70502E+02
 -1       210 1.88869E+01-3.50805E+02 2.46864E+02
 -1       211 3.39824E+01-2.54159E+02 1.75079E+02
 -1       212 3.16902E+01-2.41349E+02 1.69892E+02
 -1       213 3.72219E+01-1.45879E+02 9.78114E+01
 -1       214 1.09404E+02-2.62771E+02 1.76449E+02
 -1       215-1.16428E+01-1.95440E+02 1.37085E+02
 -1       216-6.06529E+01-1.44853E+02 9.80618E+01
 -1       217-3.48348E+01-3.07199E+02 2.15678E+02
 -1       218-1.09661E+02-2.54421E+02 1.77152E+02
 -1       219-9.01684E+01-2.10516E+02 1.38651E+02
 -1       220 3.51481E+01-3.05794E+02 2.17711E+02
 -1       221 6.79865E+01-1.88682E+02 1.30157E+02
 -1       222 1.53680E+02-3.05893E+02 2.12253E+02
 -1       223 8.67495E+01-9.90848E+01 8.03951E+01
 -1       224 1.70903E+02-2.38240E+02 1.76711E+02
 -1       225 1.27962E+02-2.85180E+02 2.10192E+02
 -1       226 2.01700E+02-3.46745E+02 2.48588E+02
 -1       227-1.00604E+01-1.11212E+02 7.20759E+01
 -1       228 5.14163E+01-1.71693E+02 1.25479E+02
 -1       229 6.87284E+01-2.33647E+02 1.72739E+02
 -1       230 2.74910E+01-2.75894E+02 1.97038E+02
 -1       231 2.34256E+01-1.71909E+02 1.23917E+02
 -1       232 1.31308E+02-3.54581E+02 2.44369E+02
 -1       233-1.54615E+01-2.11191E+02 1.44083E+02
 -1       234-5.33290E+01-3.16845E+02 2.17451E+02
 -1       235-5.79758E+01-2.01183E+02 1.31873E+02
 -1       236-9.37726E+01-3.02711E+02 2.05740E+02
 -1       237 4.41688E+01-4.22349E+02 2.98786E+02
 -1       238 8.47023E+01-3.22446E+02 2.34350E+02
 -1       239-2.51384E+01-5.82547E+01 3.27423E+01
 -1       240-3.55498E+01-6.35367E+01 3.92047E+01
 -1       241 4.82527E+01-4.21994E+02 2.95402E+02
 -1       242 1.18901E+02-4.25915E+02 2.94470E+02
 -1       243 4.59450E+01-3.49240E+02 2.42949E+02
 -1       244-7.17747E+01-4.19035E+02 3.01462E+02
 -1       245 9.52502E-01-4.22423E+02 2.98250E+02
 -1       246-3.34340E+01-4.47282E+01 3.89068E+01
 -1       247-4.71049E+01-1.17373E+02 8.97069E+01
 -1       248-1.49177E+01-5.64208E+01 4.01675E+01
 -1       249-1.07195E+01-5.42397E+01 3.84379E+01
 -1       250-4.74522E+01-5.27420E+01 4.32099E+01
 -1       251-3.81267E+01-4.22312E+02 2.97515E+02
 -1       252-1.83479E+01-3.82813E+02 2.69254E+02
 -1       253-3.71116E+01-1.37797E+02 9.06950E+01
 -1       254 1.38615E+01-1.13408E+02 8.19548E+01
 -1       255 2.98340E+01-1.81356E+02 1.19837E+02
 -1       256-1.56606E+02-2.34975E+02 1.69315E+02
 -1       257 5.84871E+00-5.61893E+01 3.87774E+01
 -1       258-4.30488E+00-5.59898E+01 3.86353E+01
 -1       259-4.94384E+01-6.91914E+01 4.62886E+01
 -1       260 1.53235E+01-6.06704E+01 3.53202E+01
 -1       261-3.04235E+01-1.68480E+02 1.23130E+02
 -1       262-1.09043E+02-1.38027E+02 1.02720E+02
 -1       263-1.12183E+02-3.47323E+02 2.40901E+02
 -1       264-1.01576E+02-4.18885E+02 2.89471E+02
 -1       265 4.56707E+01-9.14670E+01 6.80284E+01
 -1       266 1.32717E+01-4.28216E+01 3.15849E+01
 -1       267 6.69930E+01-1.09728E+02 7.16433E+01
 -1       268 3.58927E+01-6.89147E+01 4.28383E+01
 -1       269-1.11306E+01-3.35557E+02 2.37403E+02
 -1       270 9.98383E+00-3.85781E+01 2.82087E+01
 -1       271-7.10057E+01-2.16249E+02 1.59161E+02
 -1       272-6.54306E+00-3.59655E+01 2.01583E+01
 -1       273-6.23547E+01-2.77930E+02 2.02855E+02
 -3
    1PSTEP                         5           1           1          
    1PGM                1.000000E+00                                  
    1PGK                1.165193E+11                                  
    1PHID                         -1                                  
    1PSUBC                         0                                  
    1PMODE                         2                                  
  100CL  102 5.43274E+04         273                     2    2MODAL      1
 -4  STRESS      6    1
 -5  SXX         1    4    1    1
 -5  SYY         1    4    2    2
 -5  SZZ         1    4    3    3
 -5  SXY         1    4    1    2
 -5  SYZ         1    4    2    3
 -5  SZX         1    4    3    1
 -1         1-8.50533E+04-7.59040E+04-2.92537E+04 8.05637E+04 2.82992E+04-4.17957E+04
 -1         2 3.41064E+03-1.71425E+05 1.43277E+05 1.42595E+05 3.56839E+03-1.34001E+05
 -1         3 7.48249E+04 2.38868E+05-1.09499E+05 1.93972E+05-1.49453E+04-1.07459E+05
 -1         4 8.61498E+04 1.36210E+05 1.65263E+04 1.13163E+05-7.34276E+03-1.22432E+04
 -1         5 2.38270E+07 1.02116E+07 1.02116E+07-4.41894E+06-2.64290E+00 4.47440E+06
 -1         6 4.09459E+06 1.75483E+06 1.75483E+06-1.45443E+06 1.39320E-01-3.04289E+05
 -1         7-3.01251E+06 2.55278E+05-6.09725E+05-5.60526E+05-2.78069E+04-2.28304E+05
 -1         8-1.99079E+07-6.55820E+06-7.93985E+06-3.00515E+06 1.23299E+05 3.96179E+06
 -1         9-1.27194E+07-5.45117E+06-5.45118E+06-1.85705E+06 7.22027E-01 3.66360E+06
 -1        10-5.35464E+06-1.70631E+06-1.56241E+06-1.78263E+06-7.90427E+04 1.10673E+06
 -1        11 1.44147E+06-4.89631E+05-3.57726E+05-3.31000E+05 3.69862E+04 5.39446E+05
 -1        12 4.26229E+05-7.80471E+04-7.60572E+04-4.21954E+05 1.54342E+04 3.26558E+05
 -1        13 1.50015E+05 7.69828E+05 2.17565E+05-3.61771E+05 1.08848E+05-2.56830E+05
 -1        14 1.29991E+05-3.85642E+05 2.88729E+05-4.07899E+05 8.26973E+04-2.84290E+05
 -1        15-8.33988E+06 8.46951E+05 8.49064E+05 2.94917E+05 3.52125E+04 1.14831E+05
 -1        16-2.38536E+06 5.38410E+04 1.78740E+05-2.38548E+05 1.67793E+04 1.29449E+05
 -1        17 6.15903E+06 2.63959E+06 2.63959E+06-1.04888E+06-4.73442E-01 1.69922E+06
 -1        18 9.81848E+06 4.06269E+06 3.70667E+06-1.95864E+06 9.17156E+04 2.92001E+06
 -1        19 8.89866E+06-2.01606E+06-1.98860E+06-1.02843E+04 2.47671E+04-5.25004E+05
 -1        20 2.32459E+06-3.93902E+04-6.07379E+04-1.96087E+05-9.70311E+03 7.03190E+04
 -1        21-1.80168E+05 5.54548E+05-2.11941E+05-4.04088E+05-1.04661E+05-2.09529E+05
 -1        22-1.56741E+05-7.58802E+05-3.24923E+05-3.79740E+05-1.80840E+05-2.77659E+05
 -1        23-1.24792E+06 1.30490E+05-1.12545E+03-5.90349E+05 1.76490E+04 3.55717E+05
 -1        24-2.01834E+05-1.31110E+05-1.63670E+04-3.55612E+05 3.16213E+04 3.96997E+05
 -1        25-3.26449E+05-3.04430E+05-6.66913E+05 3.48837E+05-1.05065E+05 2.54135E+05
 -1        26-2.04089E+05-2.68681E+05 2.19068E+05 2.52319E+05-8.00220E+04 2.36591E+05
 -1        27 1.25411E+07 4.06409E+06 4.68223E+06-3.05991E+06-8.09002E+04 2.02197E+06
 -1        28 1.07879E+07 4.45991E+06 4.26599E+06-2.55038E+06-1.34692E+05 7.09668E+05
 -1        29 9.14624E+04 3.94717E+05-2.29759E+05 4.81979E+05-9.57631E+03 3.12899E+05
 -1        30 8.96632E+04 5.24409E+05 7.29413E+05 4.29589E+05 1.19275E+05 1.41380E+05
 -1        31-9.84749E+06-3.70297E+06-3.81750E+06-2.38574E+06-3.08325E+05 3.77212E+05
 -1        32-1.27114E+07-4.09715E+06-4.71264E+06-3.20381E+06-7.79621E+04 1.87114E+06
 -1        33-6.05084E+06-2.26843E+05 1.19197E+06-2.69273E+06-2.10889E+05 3.52934E+05
 -1        34-1.28086E+06-5.56229E+04 1.24413E+05-2.72568E+06-4.36783E+04 3.32096E+05
 -1        35-2.19390E+06 3.40777E+05 1.20193E+05-2.18497E+06-1.93163E+04-1.09151E+04
 -1        36 3.64033E+06 5.57478E+05 2.19758E+05-2.59080E+06 1.47538E+05 8.29190E+05
 -1        37 4.38791E+06-1.96943E+05-3.63012E+05-2.50440E+06 1.89928E+05 3.60910E+05
 -1        38 5.69193E+05 8.90373E+04-6.90913E+04-2.26007E+06 2.69860E+04 2.37601E+05
 -1        39 4.86426E+06-3.65290E+05-2.25940E+05-3.44878E+05 1.34841E+04 1.70189E+06
 -1        40 8.92190E+05-1.38408E+04-1.88373E+05-2.59628E+05 5.99644E+03 1.46768E+06
 -1        41 4.48102E+06-3.36747E+05 2.64221E+05-7.03422E+05 3.00283E+04 2.04881E+06
 -1        42-4.00542E+06 1.81436E+04-2.61804E+05-7.17536E+05-1.59329E+04 1.82293E+06
 -1        43-1.41512E+06 3.23071E+04 2.16648E+05-1.86928E+05 3.40108E+02 1.57438E+06
 -1        44-6.86602E+06 3.29036E+05-3.62719E+05-7.45110E+05-1.53554E+05 1.99219E+06
 -1        45 3.76192E+04 3.96922E+05-1.98811E+05-2.67832E+05 3.93091E+03 1.91256E+05
 -1        46-1.14013E+04 6.76481E+05 7.44833E+05-7.33652E+04 1.85911E+05 3.87403E+04
 -1        47 5.43382E+04-7.32827E+05-1.82289E+05-1.06608E+05-5.39818E+04 1.31700E+05
 -1        48-4.47985E+05-2.72776E+05-8.42248E+04-2.11477E+06 2.47972E+04 1.36891E+06
 -1        49-3.54749E+06-1.50267E+06-1.60141E+06-2.30498E+06-3.04764E+04 1.72024E+06
 -1        50 1.84586E+06 6.76607E+05 6.88318E+05-2.34578E+06 1.51075E+05 1.58822E+06
 -1        51 1.39951E+06-2.48113E+05-1.87197E+05-1.41966E+06 1.32087E+04 1.05858E+06
 -1        52-8.28903E+05 6.94123E+04 1.47982E+05-1.93836E+06-1.44581E+04 1.03911E+06
 -1        53-5.65227E+05 1.40308E+05-6.02922E+04-2.25557E+06-1.47975E+04 1.66232E+06
 -1        54-4.80262E+05-5.74818E+03 5.70603E+04-3.13519E+06-4.51910E+04 2.17705E+06
 -1        55-1.55275E+07-6.65464E+06-6.65465E+06-2.26202E+06-1.41110E-01 3.89356E+06
 -1        56-1.02345E+07-4.38622E+06-4.38623E+06-1.71954E+06 1.58516E+00 3.06838E+06
 -1        57-2.74615E+06-1.17692E+06-1.17692E+06-1.24423E+06 1.39320E-01 4.43611E+05
 -1        58 2.66299E+06 3.84372E+05 3.44996E+05-8.22338E+05-2.54440E+04 2.28754E+05
 -1        59 8.10838E+05-7.11376E+04-1.63773E+05-5.42399E+05 1.25675E+05 5.17354E+05
 -1        60 1.88175E+05-3.82687E+04-7.26745E+04-1.54015E+05 1.56514E+04 1.35447E+05
 -1        61 1.08944E+05 6.35834E+05 1.26460E+05-1.93006E+05 3.49234E+04-1.92807E+05
 -1        62 2.01858E+05 1.16818E+05 1.48955E+05-4.22847E+05 1.29484E+05-2.15735E+05
 -1        63 1.62444E+05-3.65169E+05 2.51260E+05-1.61571E+05-1.16174E+04-2.19361E+05
 -1        64-1.51332E+07-7.19640E+05-2.49162E+06-1.12140E+06-1.10795E+05 1.73793E+06
 -1        65-4.87262E+06 2.84267E+05 3.69022E+05-2.65023E+05 1.43431E+05-9.72188E+04
 -1        66-8.55716E+05-9.65848E+04-8.70941E+04-1.50094E+05-5.48922E+03 1.28186E+05
 -1        67 3.00533E+06 1.28800E+06 1.28800E+06-8.75487E+05-7.77685E-01 1.00831E+06
 -1        68 8.27798E+06 3.54771E+06 3.54771E+06-1.33856E+06-4.15522E-01 2.17934E+06
 -1        69 1.62655E+07 6.97094E+06 6.97094E+06-3.04660E+06-2.64290E+00 4.08428E+06
 -1        70 1.56700E+07 2.01333E+06 2.02751E+06-1.94034E+06 4.82674E+05 1.59503E+06
 -1        71 4.72028E+06-4.02767E+05-2.73000E+05-1.47331E+05-1.57870E+05-7.39239E+04
 -1        72 8.25071E+05 3.89975E+04 4.82870E+04-1.32425E+05 3.83491E+03 8.34296E+04
 -1        73-1.90873E+05 5.26852E+05-1.83529E+05-1.72500E+05 1.94771E+03-1.24641E+05
 -1        74-3.18268E+04-3.02465E+05-3.03094E+05-3.38789E+05-1.74089E+05-2.36574E+05
 -1        75-1.04178E+05-5.66711E+05-1.69189E+05-2.07571E+05-5.61874E+04-1.95654E+05
 -1        76-2.41363E+06 1.83914E+05-1.80979E+05-3.84636E+05-1.43900E+05-2.51546E+05
 -1        77-9.87642E+05 1.46805E+04-1.68554E+04-5.37304E+05-7.01146E+04 3.02615E+05
 -1        78-6.16166E+04-9.55081E+04-2.17789E+04-1.52849E+05-8.83164E+03 9.58478E+04
 -1        79-1.62534E+05-2.27911E+05-4.72154E+05 2.64313E+05-3.80388E+04 1.43958E+05
 -1        80-1.61876E+05-3.51756E+05-3.63004E+05 2.60478E+05-8.81128E+04 2.24914E+05
 -1        81-1.76958E+05-2.13044E+05 2.76222E+05 1.92504E+05 9.18469E+03 1.08467E+05
 -1        82 1.86016E+07 7.97215E+06 7.97215E+06-4.29737E+06-2.64290E+00 3.22153E+06
 -1        83 1.27269E+07 5.45438E+06 5.45438E+06-3.25140E+06-3.58854E-01 1.02524E+06
 -1        84 8.66707E+06 3.71446E+06 3.71446E+06-2.13369E+06 1.39320E-01-8.66989E+04
 -1        85 2.83850E+05 3.83969E+05-1.60759E+05 3.50473E+05-4.43706E+04 1.15029E+05
 -1        86 1.81373E+05 4.59934E+05 2.77589E+05 3.31185E+05 1.07151E+05 2.56797E+05
 -1        87 2.21837E+05 3.25188E+05 4.85421E+05 3.15434E+05 8.02834E+04 1.12456E+05
 -1        88-5.86646E+06-1.26896E+06-2.14063E+06-1.28472E+06-2.30819E+04 2.55946E+05
 -1        89-1.29080E+07-5.53203E+06-5.53203E+06-3.45832E+06 5.52848E-01 1.18529E+06
 -1        90-1.61238E+07-4.53957E+06-6.19903E+06-3.14627E+06 1.30519E+05 2.93864E+06
 -1        91-1.25405E+07-2.85149E+06-2.31775E+06-2.81410E+06-1.12282E+04 1.96436E+06
 -1        92-6.91502E+06 3.43801E+05 1.13274E+06-1.17905E+06-5.04148E+04 4.05556E+05
 -1        93-8.91666E+06-2.33130E+06-7.72284E+05-2.32826E+06-1.31864E+05 1.56860E+06
 -1        94-6.35347E+06-1.63387E+06-3.20696E+05-2.06323E+06-2.17953E+05 9.11433E+05
 -1        95-2.44904E+06-1.12329E+06-1.17929E+06-1.12875E+06 5.74818E+04 5.17113E+05
 -1        96 2.82221E+05 1.31806E+04 2.32386E+05-1.76248E+06 9.21525E+04 2.25754E+05
 -1        97-1.30284E+04-1.86567E+04 1.56948E+05-1.52993E+06-3.25652E+04 2.34988E+05
 -1        98 4.04659E+05-1.75580E+05 1.12590E+05-4.45358E+05 5.56258E+04-2.52191E+04
 -1        99-9.53693E+05 3.50134E+05 9.42321E+04-3.96062E+05 1.26540E+04-5.74757E+04
 -1       100-5.11745E+05 2.37662E+05 1.28791E+05-1.36449E+06 4.09974E+04-1.13040E+05
 -1       101-5.92161E+05 5.41283E+05 1.73787E+05-1.29879E+06 2.83133E+04-1.65376E+05
 -1       102-2.22781E+06 3.05150E+05 2.12197E+05-1.20603E+06 5.52340E+04 1.17725E+04
 -1       103-5.28324E+06 3.07302E+05 1.00379E+05-1.34750E+06 9.80264E+04 2.62582E+02
 -1       104-3.69532E+06-6.46908E+05-3.99145E+05-2.37621E+06-1.33716E+05 6.21056E+05
 -1       105-3.41709E+05-5.89944E+04 6.37684E+04-1.67693E+06-1.15717E+04 9.73387E+04
 -1       106-4.05642E+06-4.35733E+04 2.06874E+05-2.54796E+06-9.49251E+04 1.62237E+05
 -1       107-1.77576E+06 7.03436E+04 8.63365E+04-2.47415E+06-1.96861E+04 1.82931E+05
 -1       108-3.83337E+06-7.36496E+04 1.07932E+05-2.64044E+06-1.80707E+05 3.83083E+05
 -1       109 1.09770E+06 6.29289E+05 2.99082E+05-1.58130E+06 6.99823E+04 2.82416E+05
 -1       110 5.10034E+06 1.58888E+06 1.50057E+06-1.79604E+06 8.64647E+04 1.28610E+06
 -1       111 6.96489E+06 2.10025E+06 1.93703E+06-2.23679E+06 1.03614E+05 1.78455E+06
 -1       112 8.97915E+06 1.32944E+05-6.76783E+05-1.06582E+06 1.36592E+05 1.27086E+06
 -1       113 3.24315E+06-1.12402E+05-1.48440E+04-1.28763E+06 4.62340E+04 3.75613E+04
 -1       114 6.88249E+06-4.14869E+05-6.58200E+05-1.25769E+06-8.01768E+04-5.90008E+04
 -1       115 9.22075E+05-4.05470E+05-1.47411E+05-3.65742E+05-6.98892E+04-7.99131E+04
 -1       116-3.56290E+05 1.48303E+05-6.99368E+04-4.93284E+05 8.88159E+03 6.88030E+04
 -1       117 2.58225E+04 2.86364E+05-3.30444E+04-1.27811E+06-1.36146E+04 2.48252E+04
 -1       118 1.31205E+05-2.96914E+05-6.11689E+04-1.31252E+06-7.41081E+04 2.18993E+04
 -1       119 9.49969E+04 5.36201E+04-9.16631E+04-1.35411E+06 3.85239E+04 2.52320E+05
 -1       120-2.62233E+05 1.56214E+05-1.06159E+05-1.60663E+06-7.09656E+03 6.60851E+04
 -1       121 1.60354E+06 3.49952E+05 1.79793E+05-1.77359E+06 8.99388E+04 4.01735E+05
 -1       122 7.42181E+06 1.71707E+06 9.42934E+05-2.39606E+06 1.41622E+05 1.61999E+06
 -1       123 1.36304E+06-4.46563E+05-9.78578E+04-1.51635E+06 1.11672E+04-2.82322E+03
 -1       124 1.84325E+06 1.69981E+05-1.00015E+05-2.65365E+06 5.57122E+04 2.96582E+05
 -1       125 3.97511E+06 4.13142E+05-9.92779E+04-2.65119E+06 8.23161E+04 6.45554E+05
 -1       126 2.30447E+06-1.59057E+05-9.12509E+04-2.45915E+06 1.70880E+05 2.72082E+05
 -1       127 1.05234E+07 1.14412E+05 9.66688E+05-1.39131E+06 1.75260E+05 5.98737E+05
 -1       128 7.00772E+06-2.07184E+05-2.18416E+05-1.70235E+05 1.21520E+04 7.50284E+05
 -1       129 3.35799E+06-1.11191E+05-2.42203E+05-1.74167E+05-9.05674E+04 7.58958E+05
 -1       130 8.42762E+05-1.33081E+05-3.42629E+05 6.19796E+04-1.19806E+04 2.26194E+05
 -1       131 2.68918E+05-8.70291E+04-4.38607E+05 2.14558E+04-7.79098E+04 8.35075E+05
 -1       132 2.09122E+05-3.35322E+04 1.61838E+04-3.12522E+04-4.90458E+04 8.17505E+05
 -1       133 3.92446E+04-9.13840E+04 5.72020E+04-9.87400E+04 9.90205E+03 3.88364E+05
 -1       134 6.31116E+06 1.67172E+06 1.68697E+06-1.22062E+06-1.61307E+05 7.07286E+05
 -1       135 1.70906E+06-2.02295E+05-5.80153E+04-4.91729E+05 5.00452E+04 1.25192E+06
 -1       136 3.10967E+06-3.70944E+05 1.47119E+05-4.04665E+05-3.05538E+04 1.41889E+06
 -1       137 7.76817E+06 1.55632E+06 1.88730E+06-1.52123E+06-1.10956E+05 1.50584E+06
 -1       138 9.27008E+06 1.62306E+06 2.27701E+06-1.85540E+06 3.11672E+04 1.73468E+06
 -1       139 1.33706E+06-1.60137E+05-5.19815E+05 3.25266E+04-1.56461E+04 9.38698E+05
 -1       140 4.26377E+05-1.01968E+05-7.02476E+04-3.59041E+05-9.42530E+02 9.94637E+05
 -1       141 9.05908E+06 1.18337E+06 1.73292E+06-1.46962E+06-1.88220E+05 2.02607E+06
 -1       142 4.66257E+06-6.01769E+05 1.56149E+05-4.45652E+05-4.25655E+03 1.97144E+06
 -1       143 2.55536E+06 4.51539E+04 1.75660E+05-3.82605E+05 5.25085E+04 1.80418E+06
 -1       144 2.31532E+06-1.20235E+05-4.18436E+05-1.79426E+05 1.29152E+05 1.58494E+06
 -1       145-4.97430E+06-1.46111E+05-6.68503E+05-5.43454E+05 7.76188E+03 7.72742E+05
 -1       146-2.51860E+06 1.68332E+04-1.11946E+05-5.08340E+05 1.27767E+04 1.30396E+06
 -1       147-1.56701E+06 3.62954E+04 8.14110E+03-3.48975E+05-3.32948E+03 1.18199E+06
 -1       148-8.10588E+04 6.90057E+04-1.19910E+05 1.06532E+05 2.84215E+03 3.95295E+05
 -1       149-5.60062E+05 2.05343E+05 4.75188E+05 3.97957E+04 7.38053E+04 8.18812E+05
 -1       150-3.99448E+05 2.45834E+05 1.37806E+05 1.04083E+05 1.18524E+04 9.16228E+05
 -1       151-8.55223E+05 2.27916E+05 3.76396E+05 6.69982E+04 4.97221E+04 1.81651E+05
 -1       152-1.07880E+07-1.05485E+05-1.27352E+06-7.70395E+05-2.41639E+05 9.05576E+05
 -1       153-7.99903E+06 1.33728E+05-1.74223E+05-2.91280E+05 2.55696E+04 1.09929E+06
 -1       154-4.61591E+06-1.04389E+04-1.60833E+04-2.77348E+05-2.30776E+04 1.00528E+06
 -1       155-1.04763E+07-1.78074E+06-2.55080E+06-1.98060E+06-1.99065E+05 1.91845E+06
 -1       156-9.04804E+06-1.40745E+06-2.21555E+06-1.72550E+06-1.26829E+05 1.42550E+06
 -1       157-5.41469E+05 4.61685E+04 7.39717E+04-1.04326E+05 7.05669E+03 1.16512E+06
 -1       158-1.96414E+06 1.08813E+05 3.18130E+05-2.21622E+05 2.07399E+04 9.28290E+05
 -1       159-7.57609E+06-1.65532E+06-1.88723E+06-1.67162E+06-2.58770E+05 1.01866E+06
 -1       160-5.45907E+06 2.55828E+05-4.62184E+05-8.44048E+05-1.04075E+05 1.96106E+06
 -1       161-2.69919E+06-1.80857E+04-8.89116E+04-3.33161E+05-4.20869E+04 1.77640E+06
 -1       162-3.53008E+06 1.32919E+05 6.13972E+04-3.82540E+05-1.04062E+05 1.71296E+06
 -1       163-5.94355E+04 4.95791E+05-2.89765E+05 5.44559E+04-7.34438E+04 7.03890E+04
 -1       164 8.70124E+04 5.10308E+05-2.07876E+05 8.33593E+03 3.34804E+04 2.20766E+05
 -1       165 9.69317E+04 5.58252E+05 3.30387E+05 1.95451E+04 6.85684E+04 1.45062E+05
 -1       166 1.53406E+05 8.01897E+05 5.64636E+05 5.95052E+04 1.15370E+05-5.79738E+04
 -1       167 1.14832E+04 7.76869E+05 5.61127E+05-1.63995E+05 1.38426E+05-9.65518E+04
 -1       168-6.72859E+03-2.04855E+04 5.45854E+05-2.08869E+05 1.06993E+05-1.04615E+05
 -1       169-9.33342E+04-4.56574E+05 2.99678E+05-7.67885E+04-2.40376E+04-4.00762E+04
 -1       170-1.19448E+05-6.51328E+05-5.86190E+05-2.35611E+04-1.33104E+05-1.88457E+04
 -1       171-2.65628E+03-5.49500E+05 5.76301E+04 1.49211E+04-1.02282E+05 1.38205E+05
 -1       172-1.14513E+05-6.73692E+05-5.25559E+05 9.70385E+04-7.57820E+04 1.68578E+05
 -1       173-5.37601E+04-9.30460E+05-5.71564E+05-2.02337E+05-1.36167E+05-4.48673E+04
 -1       174-6.06147E+04-2.51405E+05-4.24174E+05-2.27506E+05-1.11669E+05-1.02619E+04
 -1       175-2.63421E+04 4.74835E+05-2.98730E+05-2.33991E+05-1.08417E+05 4.66141E+04
 -1       176-1.03275E+05 7.60443E+05 7.93106E+05 1.72352E+05 1.41944E+05 6.99738E+04
 -1       177 8.71395E+04 6.41883E+05 2.81354E+05-1.54877E+05 1.16952E+05 9.20863E+04
 -1       178 4.33089E+03-6.57409E+05 2.54826E+05-1.81070E+05 7.67549E+03-4.11261E+04
 -1       179 9.87702E+04-7.34092E+04 3.08753E+05-4.81040E+04 1.01553E+05 1.08910E+05
 -1       180-8.33618E+04-1.77717E+05-2.82212E+05-1.78990E+05-1.02471E+04 1.16045E+05
 -1       181-1.13512E+06-4.86476E+05-4.86475E+05-1.37159E+06-5.02401E-01 9.16556E+05
 -1       182-6.52135E+06-2.79488E+06-2.79487E+06-2.71835E+06 8.63882E-01 1.42187E+06
 -1       183-5.04005E+06-2.02400E+06-1.87750E+06-2.28542E+06-1.66709E+05 8.79754E+05
 -1       184-1.06295E+07-4.55550E+06-4.55550E+06-2.44798E+06 3.10696E-01 2.86192E+06
 -1       185-7.82139E+06-3.35203E+06-3.35204E+06-2.04301E+06 7.22027E-01 2.63195E+06
 -1       186-4.40365E+06-1.89424E+06-1.65452E+06-1.93261E+06-4.54723E+04 1.68965E+06
 -1       187 2.39187E+06 1.14107E+06 9.53019E+05-2.11142E+06 1.74579E+04 6.72157E+05
 -1       188 1.03077E+07 3.99458E+06 4.03235E+06-2.61973E+06 2.20027E+05 2.57850E+06
 -1       189 7.66188E+06 3.07713E+06 2.87196E+06-2.87044E+06-1.33443E+05 1.87440E+06
 -1       190 5.67080E+06 2.43035E+06 2.43035E+06-2.44967E+06-1.03484E-01 1.10776E+06
 -1       191 5.41249E+06 2.11557E+06 2.25496E+06-2.16152E+06 2.82385E+04 2.11409E+06
 -1       192 2.22962E+06 9.55557E+05 9.55558E+05-1.52357E+06-3.21320E-01 1.38484E+06
 -1       193-7.57930E+06-3.26242E+06-3.16647E+06-2.91207E+06 7.74819E+04 2.02839E+06
 -1       194-8.69000E+05-2.11081E+05-3.28686E+05-2.08182E+06-4.27099E+04 1.35374E+06
 -1       195 4.34858E+06 1.86368E+06 1.86368E+06-1.81325E+06-5.71552E-01 1.86496E+06
 -1       196 1.16873E+05 6.22925E+04 1.47380E+05-2.25038E+06-3.38484E+03 1.48020E+06
 -1       197-1.96371E+06-9.14404E+05-8.64084E+05-2.23829E+06-1.55152E+04 1.54872E+06
 -1       198-9.28906E+05-3.98103E+05-3.98103E+05-2.19335E+06 1.49238E-01 1.52839E+06
 -1       199-1.81201E+06 1.41501E+05 1.98698E+05-1.06415E+06-1.76881E+04 5.37951E+05
 -1       200-4.80326E+05 3.65274E+05 1.36414E+05-1.02522E+06 7.97814E+04 3.27208E+05
 -1       201-1.54656E+06 2.09108E+05 1.51437E+05-1.97427E+06-6.52533E+04 4.72324E+05
 -1       202-5.76200E+05 2.47098E+05 3.22836E+05-6.66461E+05 6.70135E+04 5.39187E+05
 -1       203-3.67810E+05 3.83412E+05 4.18458E+05-9.27875E+05 1.11018E+05 5.15392E+05
 -1       204 1.77219E+05 2.00999E+05-1.70116E+05-1.16731E+06 9.46690E+03 3.18591E+05
 -1       205-8.19615E+04 1.52896E+05-2.18465E+05-7.96957E+05 1.92463E+04 3.14091E+05
 -1       206 5.32728E+05-1.91808E+05-3.23055E+05-4.46000E+05-8.28113E+04 6.08493E+05
 -1       207 5.84226E+05-4.26816E+05-2.24466E+05-8.49914E+05-1.12105E+05 3.60630E+05
 -1       208 4.94820E+05-5.06369E+05-2.25811E+05-7.35580E+05-5.27985E+04 5.53332E+05
 -1       209-9.29071E+05-6.66363E+04 9.25444E+04-2.59797E+06-6.08376E+04 1.58557E+06
 -1       210 3.79482E+05-1.10502E+05 1.90264E+03-1.77682E+06-1.07531E+03 1.15520E+06
 -1       211 1.21754E+06-1.36015E+05 1.13302E+05-1.55503E+06-1.95127E+04 1.58714E+06
 -1       212 1.11299E+06 1.06380E+05 1.97263E+05-2.38185E+06 1.51994E+04 1.65486E+06
 -1       213 2.13856E+06 1.71216E+05 2.93062E+05-2.17300E+06 7.19556E+03 2.00095E+06
 -1       214 2.54006E+06-2.69700E+05 8.38318E+04-1.10010E+06 2.63621E+04 1.64676E+06
 -1       215-5.78086E+05-6.00698E+04 2.40317E+04-2.66636E+06-3.28107E+04 1.93427E+06
 -1       216-3.81507E+06-1.43842E+05-2.95345E+05-2.12060E+06-1.03648E+05 2.02169E+06
 -1       217-6.28870E+05 1.93201E+05-3.54600E+03-2.09189E+06 1.46741E+04 1.43368E+06
 -1       218-3.26574E+06 2.52690E+05 9.85755E+04-1.36355E+06-5.90946E+04 1.47497E+06
 -1       219-3.08972E+06 2.34157E+05-1.39111E+05-1.43880E+06-8.97793E+04 1.79398E+06
 -1       220 5.66835E+05 2.84435E+04-1.19994E+05-1.98151E+06-1.07333E+03 1.38596E+06
 -1       221 2.90752E+06 1.74234E+05 2.59449E+05-1.96617E+06-3.64014E+04 1.98718E+06
 -1       222 2.71056E+06-3.63241E+05-3.92553E+05-8.12544E+05 6.26435E+04 1.32645E+06
 -1       223 7.88590E+06 1.02000E+06 1.34182E+06-2.39105E+06 1.45323E+05 1.26306E+06
 -1       224 4.75481E+06-2.30444E+05-2.50581E+05-1.40460E+06 1.47266E+05 9.31085E+05
 -1       225 2.63043E+06-2.71663E+05-1.90711E+05-1.98646E+06 1.36331E+05 6.63532E+05
 -1       226 1.97130E+06-1.58687E+05-1.38611E+05-7.41403E+05 2.72587E+04 5.55693E+05
 -1       227-2.07885E+05 2.31249E+05 4.30502E+04-1.67133E+06 1.10265E+05 1.29980E+06
 -1       228 2.40421E+06 2.19383E+05 2.03785E+05-2.81417E+06 2.51652E+04 1.46811E+06
 -1       229 1.72184E+06-6.24211E+04-1.20242E+05-2.42234E+06 9.65321E+04 1.02550E+06
 -1       230 1.48397E+05 1.26591E+05-2.45276E+04-2.25093E+06-1.36780E+04 9.72105E+05
 -1       231 8.41028E+05 1.89932E+05-7.46029E+04-2.51516E+06 4.83566E+04 1.18115E+06
 -1       232 1.17018E+06-1.54731E+05-2.36671E+05-7.70685E+05 2.90250E+03 1.26066E+06
 -1       233-1.00211E+06 2.26691E+05-4.64202E+04-1.46357E+06-2.25429E+04 9.80866E+05
 -1       234-4.85922E+05 3.87733E+04-1.52575E+04-1.13018E+06-1.23626E+04 1.04639E+06
 -1       235-2.00331E+06 1.87877E+05-1.07936E+05-1.47971E+06-6.87725E+04 1.68320E+06
 -1       236-1.12111E+06 9.02388E+04 5.06700E+03-1.16439E+06 2.69683E+03 1.57234E+06
 -1       237 5.03793E+05-4.42896E+04-2.47498E+05-8.40138E+05 6.03546E+03 6.00696E+05
 -1       238 1.02065E+06-9.01622E+04-1.04432E+05-1.86022E+06 1.74790E+04 6.32873E+05
 -1       239-2.45334E+06-9.30468E+04-1.69239E+05-1.57565E+06 5.71327E+04 1.58944E+06
 -1       240-3.79351E+06 2.10807E+05-2.88138E+05-1.49235E+06 7.43151E+01 1.71471E+06
 -1       241 2.13051E+05-2.70235E+05 1.21164E+05-3.54662E+05 2.89263E+04 5.59084E+05
 -1       242 4.73005E+05-3.10261E+05-1.31867E+05-2.50110E+05-3.53645E+04 7.64127E+05
 -1       243 2.59601E+05-1.32957E+05-9.21418E+03-1.21501E+06 9.24137E+03 1.23875E+06
 -1       244-2.54233E+05-9.79735E+04 1.78434E+05-1.11855E+06 6.72046E+04 3.54262E+05
 -1       245-6.23959E+04-2.14133E+05 7.01817E+04-9.67604E+05-4.86241E+03 6.23910E+05
 -1       246-4.83969E+06-7.24679E+05 9.90132E+04-2.46309E+06-1.20965E+05 9.75232E+05
 -1       247-3.66560E+06-3.84866E+05-1.20014E+05-2.92526E+06-1.38457E+05 1.39787E+06
 -1       248-1.99683E+06-7.23766E+05-7.87452E+05-2.65645E+06-8.64485E+04 1.86922E+06
 -1       249-2.35178E+06-5.63957E+05-4.67500E+05-2.41991E+06-1.23473E+05 1.66600E+06
 -1       250-8.78677E+06-1.49468E+06-1.16513E+06-2.74877E+06-1.73374E+05 1.25682E+06
 -1       251-3.20263E+05 2.53619E+05 6.10125E+04-1.01763E+06-1.16702E+04 6.47816E+05
 -1       252-1.58502E+05 2.38203E+05-7.63968E+04-1.31357E+06 4.48982E+03 9.77813E+05
 -1       253-2.26471E+06-7.18890E+04-1.46131E+05-2.12847E+06-4.12704E+04 1.98692E+06
 -1       254 1.09937E+06 1.31023E+05 6.12695E+03-2.81770E+06 5.15533E+04 1.62912E+06
 -1       255 1.44031E+06-1.55638E+05 2.07465E+05-1.71810E+06 2.52192E+04 1.15683E+06
 -1       256-4.44130E+06 2.72248E+05-7.17527E+04-1.35834E+06-5.80952E+04 1.01679E+06
 -1       257 6.27859E+05 2.27515E+05 2.74324E+05-2.60470E+06 1.20215E+05 1.83974E+06
 -1       258-4.85316E+05-3.03923E+05 5.14472E+03-2.72186E+06-4.28600E+03 1.85075E+06
 -1       259-5.73594E+06-5.77873E+05-1.17982E+06-1.72810E+06-1.98897E+05 1.89675E+06
 -1       260 7.38995E+05-3.51912E+05-1.33739E+05-1.45774E+06-8.11278E+04 1.40028E+06
 -1       261-1.10136E+06 7.46293E+04 7.33168E+03-2.87616E+06-4.13108E+04 1.36781E+06
 -1       262-6.86448E+06-1.68543E+05-1.00064E+05-1.74299E+06-2.22502E+05 1.33514E+06
 -1       263-1.17065E+06 1.56950E+05 1.81756E+05-1.08135E+06 1.10651E+04 1.22729E+06
 -1       264-6.02386E+05 2.22185E+05 6.25099E+04-3.39364E+05 1.36038E+04 8.20158E+05
 -1       265 3.52114E+06 1.78593E+05 9.37154E+04-2.43292E+06 1.67406E+05 1.19894E+06
 -1       266 2.32769E+06 4.02457E+05 1.54988E+05-2.40303E+06 1.38116E+05 1.30731E+06
 -1       267 4.28424E+06 2.16621E+05 5.43190E+05-1.46209E+06 1.54335E+05 1.72524E+06
 -1       268 3.62693E+06 6.23426E+04 3.56175E+05-1.55903E+06 1.80915E+05 1.61374E+06
 -1       269-1.98817E+05-1.50164E+05 5.79589E+04-1.31230E+06-2.67751E+04 6.42787E+05
 -1       270 1.50974E+06 1.46906E+05 1.64439E+04-2.25469E+06 6.68702E+04 1.16677E+06
 -1       271-2.00193E+06-1.18005E+05-1.13107E+05-2.60114E+06-6.07861E+04 1.08859E+06
 -1       272-2.24343E+06-1.11829E+06-1.24640E+06-2.17476E+06-6.30325E+04 6.37077E+05
 -1       273-1.06179E+06-6.80807E+04 1.40084E+05-2.35975E+06-8.86555E+04 7.56451E+05
 -3
    1PSTEP                         6           1           1          
    1PGM                1.000000E+00                                  
    1PGK                1.165193E+11                                  
    1PHID                         -1                                  
    1PSUBC                         0                                  
    1PMODE                         2                                  
  100CL  102 5.43274E+04         273                     2    2MODAL      1
 -4  TOSTRAIN    6    1
 -5  EXX         1    4    1    1
 -5  EYY         1    4    2    2
 -5  EZZ         1    4    3    3
 -5  EXY         1    4    1    2
 -5  EYZ         1    4    2    3
 -5  EZX         1    4    3    1
 -1         1-2.67530E-01-2.08059E-01 9.51673E-02 5.23664E-01 1.83945E-01-2.71672E-01
 -1         2 5.92744E-02-1.07716E+00 9.68408E-01 9.26870E-01 2.31945E-02-8.71004E-01
 -1         3 1.80072E-01 1.24635E+00-1.01803E+00 1.26082E+00-9.71446E-02-6.98481E-01
 -1         4 2.01644E-01 5.27036E-01-2.50909E-01 7.35558E-01-4.77279E-02-7.95808E-02
 -1         5 8.85002E+01 9.02348E-05 8.97298E-05-2.87231E+01-1.71789E-05 2.90836E+01
 -1         6 1.52085E+01 1.41823E-05 1.55838E-05-9.45382E+00 9.05578E-07-1.97788E+00
 -1         7-1.45309E+01 6.70974E+00 1.08723E+00-3.64342E+00-1.80745E-01-1.48397E+00
 -1         8-7.77924E+01 8.98062E+00-8.36279E-05-1.95334E+01 8.01446E-01 2.57516E+01
 -1         9-4.72434E+01-1.57527E-05-7.12397E-05-1.20708E+01 4.69317E-06 2.38134E+01
 -1        10-2.18701E+01 1.84402E+00 2.77939E+00-1.15871E+01-5.13778E-01 7.19374E+00
 -1        11 8.47840E+00-4.07377E+00-3.21640E+00-2.15150E+00 2.40410E-01 3.50640E+00
 -1        12 2.36230E+00-9.15493E-01-9.02559E-01-2.74270E+00 1.00322E-01 2.12263E+00
 -1        13-7.31014E-01 3.29777E+00-2.91939E-01-2.35151E+00 7.07512E-01-1.66940E+00
 -1        14 7.95323E-01-2.55629E+00 1.82712E+00-2.65134E+00 5.37532E-01-1.84789E+00
 -1        15-4.42434E+01 1.54710E+01 1.54847E+01 1.91696E+00 2.28881E-01 7.46403E-01
 -1        16-1.22757E+01 3.57913E+00 4.39097E+00-1.55056E+00 1.09065E-01 8.41416E-01
 -1        17 2.28764E+01 1.07153E-05 1.38586E-05-6.81770E+00-3.07737E-06 1.10449E+01
 -1        18 3.74384E+01 2.57097E-02-2.28841E+00-1.27312E+01 5.96152E-01 1.89801E+01
 -1        19 5.05003E+01-2.04454E+01-2.02669E+01-6.68478E-02 1.60986E-01-3.41252E+00
 -1        20 1.17732E+01-3.59273E+00-3.73149E+00-1.27457E+00-6.30702E-02 4.57073E-01
 -1        21-1.41475E+00 3.36090E+00-1.62128E+00-2.62657E+00-6.80298E-01-1.36194E+00
 -1        22 8.41884E-01-3.07151E+00-2.51303E-01-2.46831E+00-1.17546E+00-1.80478E+00
 -1        23-6.43364E+00 2.52602E+00 1.67052E+00-3.83727E+00 1.14718E-01 2.31216E+00
 -1        24-7.87953E-01-3.28249E-01 4.17581E-01-2.31148E+00 2.05539E-01 2.58048E+00
 -1        25-1.75229E-01-3.21051E-02-2.38825E+00 2.26744E+00-6.82925E-01 1.65187E+00
 -1        26-9.46027E-01-1.36587E+00 1.80450E+00 1.64007E+00-5.20143E-01 1.53784E+00
 -1        27 4.95861E+01-5.51456E+00-1.49665E+00-1.98894E+01-5.25851E-01 1.31428E+01
 -1        28 4.08506E+01-2.81245E-01-1.54177E+00-1.65775E+01-8.75496E-01 4.61284E+00
 -1        29 2.09875E-01 2.18103E+00-1.87806E+00 3.13286E+00-6.22460E-02 2.03384E+00
 -1        30-1.43242E+00 1.39343E+00 2.72596E+00 2.79233E+00 7.75290E-01 9.18972E-01
 -1        31-3.79568E+01 1.98265E+00 1.23820E+00-1.55073E+01-2.00411E+00 2.45187E+00
 -1        32-5.03423E+01 5.65032E+00 1.64961E+00-2.08248E+01-5.06754E-01 1.21624E+01
 -1        33-3.17019E+01 6.15410E+00 1.53764E+01-1.75028E+01-1.37078E+00 2.29407E+00
 -1        34-6.50748E+00 1.45655E+00 2.62679E+00-1.77169E+01-2.83909E-01 2.15863E+00
 -1        35-1.16610E+01 4.81444E+00 3.38065E+00-1.42023E+01-1.25556E-01-7.09483E-02
 -1        36 1.70358E+01-3.00275E+00-5.19793E+00-1.68402E+01 9.58997E-01 5.38974E+00
 -1        37 2.27795E+01-7.02206E+00-8.10151E+00-1.62786E+01 1.23453E+00 2.34592E+00
 -1        38 2.81605E+00-3.04966E-01-1.33280E+00-1.46905E+01 1.75409E-01 1.54440E+00
 -1        39 2.52082E+01-8.78394E+00-7.87816E+00-2.24171E+00 8.76469E-02 1.10623E+01
 -1        40 4.76427E+00-1.12493E+00-2.25939E+00-1.68758E+00 3.89769E-02 9.53993E+00
 -1        41 2.25139E+01-8.80161E+00-4.89531E+00-4.57224E+00 1.95184E-01 1.33173E+01
 -1        42-1.96616E+01 6.49156E+00 4.67190E+00-4.66398E+00-1.03564E-01 1.18491E+01
 -1        43-7.44904E+00 1.95925E+00 3.15746E+00-1.21503E+00 2.21070E-03 1.02334E+01
 -1        44-3.42796E+01 1.24883E+01 7.99189E+00-4.84322E+00-9.98099E-01 1.29492E+01
 -1        45-1.09071E-01 2.22640E+00-1.64587E+00-1.74091E+00 2.55509E-02 1.24316E+00
 -1        46-2.18898E+00 2.28226E+00 2.72655E+00-4.76874E-01 1.20842E+00 2.51812E-01
 -1        47 1.64437E+00-3.47221E+00 1.06288E-01-6.92953E-01-3.50882E-01 8.56048E-01
 -1        48-1.70443E+00-5.65563E-01 6.60017E-01-1.37460E+01 1.61182E-01 8.89791E+00
 -1        49-1.30813E+01 2.09989E-01-4.31813E-01-1.49823E+01-1.98097E-01 1.11815E+01
 -1        50 7.18190E+00-4.18225E-01-3.42107E-01-1.52476E+01 9.81986E-01 1.03235E+01
 -1        51 7.65049E+00-3.05903E+00-2.66307E+00-9.22782E+00 8.58565E-02 6.88077E+00
 -1        52-4.47060E+00 1.36844E+00 1.87914E+00-1.25993E+01-9.39776E-02 6.75421E+00
 -1        53-2.94616E+00 1.63982E+00 3.35917E-01-1.46612E+01-9.61837E-02 1.08051E+01
 -1        54-2.47828E+00 6.06061E-01 1.01432E+00-2.03787E+01-2.93742E-01 1.41508E+01
 -1        55-5.76734E+01-2.35374E-05-7.21343E-05-1.47031E+01-9.17216E-07 2.53082E+01
 -1        56-3.80138E+01-7.96796E-06-7.03451E-05-1.11770E+01 1.03036E-05 1.99445E+01
 -1        57-1.02000E+01 1.41823E-05 1.55838E-05-8.08747E+00 9.05578E-07 2.88347E+00
 -1        58 1.22209E+01-2.59012E+00-2.84607E+00-5.34520E+00-1.65386E-01 1.48690E+00
 -1        59 4.40656E+00-1.32629E+00-1.92842E+00-3.52559E+00 8.16889E-01 3.36280E+00
 -1        60 1.10729E+00-3.64595E-01-5.88233E-01-1.00110E+00 1.01734E-01 8.80408E-01
 -1        61-5.98719E-01 2.82606E+00-4.84869E-01-1.25454E+00 2.27002E-01-1.25325E+00
 -1        62 6.10631E-01 5.78692E-02 2.66760E-01-2.74851E+00 8.41647E-01-1.40228E+00
 -1        63 9.83083E-01-2.44640E+00 1.56039E+00-1.05021E+00-7.55131E-02-1.42585E+00
 -1        64-7.08489E+01 2.28389E+01 1.13211E+01-7.28909E+00-7.20169E-01 1.12965E+01
 -1        65-2.53430E+01 8.17673E+00 8.72763E+00-1.72265E+00 9.32301E-01-6.31922E-01
 -1        66-4.00306E+00 9.31291E-01 9.92981E-01-9.75613E-01-3.56799E-02 8.33210E-01
 -1        67 1.11626E+01 9.86192E-06 5.39812E-06-5.69067E+00-5.05495E-06 6.55403E+00
 -1        68 3.07468E+01 1.73129E-05 1.81435E-05-8.70061E+00-2.70089E-06 1.41657E+01
 -1        69 6.04145E+01 9.02348E-05 8.97298E-05-1.98029E+01-1.71789E-05 2.65478E+01
 -1        70 7.22886E+01-1.64796E+01-1.63874E+01-1.26122E+01 3.13738E+00 1.03677E+01
 -1        71 2.46150E+01-8.68474E+00-7.84126E+00-9.57649E-01-1.02615E+00-4.80506E-01
 -1        72 3.99443E+00-1.11505E+00-1.05467E+00-8.60759E-01 2.49269E-02 5.42293E-01
 -1        73-1.46935E+00 3.19586E+00-1.42161E+00-1.12125E+00 1.26601E-02-8.10169E-01
 -1        74 7.49204E-01-1.00994E+00-1.01403E+00-2.20213E+00-1.13158E+00-1.53773E+00
 -1        75 5.82958E-01-2.42350E+00 1.60391E-01-1.34921E+00-3.65218E-01-1.27175E+00
 -1        76-1.20725E+01 4.81148E+00 2.43967E+00-2.50013E+00-9.35349E-01-1.63505E+00
 -1        77-4.93495E+00 1.58015E+00 1.37516E+00-3.49248E+00-4.55745E-01 1.96700E+00
 -1        78-1.32152E-01-3.52447E-01 1.26793E-01-9.93520E-01-5.74056E-02 6.23011E-01
 -1        79 2.37426E-01-1.87525E-01-1.77510E+00 1.71804E+00-2.47252E-01 9.35725E-01
 -1        80 2.62761E-01-9.71460E-01-1.04457E+00 1.69311E+00-5.72733E-01 1.46194E+00
 -1        81-9.79556E-01-1.21412E+00 1.96611E+00 1.25127E+00 5.97005E-02 7.05034E-01
 -1        82 6.90917E+01 9.02348E-05 8.97298E-05-2.79329E+01-1.71789E-05 2.09400E+01
 -1        83 4.72712E+01 2.28267E-05 2.82949E-05-2.11341E+01-2.33255E-06 6.66403E+00
 -1        84 3.21920E+01 1.41823E-05 1.55838E-05-1.38690E+01 9.05578E-07-5.63543E-01
 -1        85 1.08444E+00 1.73521E+00-1.80552E+00 2.27808E+00-2.88409E-01 7.47688E-01
 -1        86-1.99421E-01 1.61123E+00 4.25983E-01 2.15270E+00 6.96480E-01 1.66918E+00
 -1        87-1.06730E-01 5.65056E-01 1.60657E+00 2.05032E+00 5.21842E-01 7.30966E-01
 -1        88-2.42179E+01 5.66580E+00-7.47556E-06-8.35068E+00-1.50033E-01 1.66365E+00
 -1        89-4.79441E+01-5.62453E-05-2.71277E-05-2.24791E+01 3.59351E-06 7.70442E+00
 -1        90-6.45111E+01 1.07864E+01-8.93747E-05-2.04508E+01 8.48374E-01 1.91012E+01
 -1        91-5.49488E+01 8.02999E+00 1.14992E+01-1.82917E+01-7.29835E-02 1.27683E+01
 -1        92-3.67899E+01 1.03924E+01 1.55205E+01-7.66382E+00-3.27696E-01 2.63612E+00
 -1        93-3.99279E+01 2.87692E+00 1.30105E+01-1.51337E+01-8.57115E-01 1.01959E+01
 -1        94-2.88355E+01 1.84189E+00 1.03775E+01-1.34110E+01-1.41669E+00 5.92431E+00
 -1        95-8.79135E+00-1.73938E-01-5.37958E-01-7.33684E+00 3.73632E-01 3.36124E+00
 -1        96 1.04276E+00-7.06009E-01 7.18829E-01-1.14562E+01 5.98991E-01 1.46740E+00
 -1        97-2.72579E-01-3.09163E-01 8.32268E-01-9.94456E+00-2.11674E-01 1.52742E+00
 -1        98 2.11778E+00-1.65377E+00 2.19331E-01-2.89483E+00 3.61568E-01-1.63924E-01
 -1        99-5.43501E+00 3.03986E+00 1.37650E+00-2.57440E+00 8.22509E-02-3.73592E-01
 -1       100-3.10841E+00 1.76274E+00 1.05508E+00-8.86917E+00 2.66483E-01-7.34759E-01
 -1       101-4.03341E+00 3.33398E+00 9.45250E-01-8.44217E+00 1.84037E-01-1.07494E+00
 -1       102-1.19151E+01 4.54917E+00 3.94498E+00-7.83920E+00 3.59021E-01 7.65215E-02
 -1       103-2.70277E+01 9.31079E+00 7.96580E+00-8.75876E+00 6.37172E-01 1.70678E-03
 -1       104-1.69075E+01 2.90716E+00 4.51762E+00-1.54454E+01-8.69156E-01 4.03686E+00
 -1       105-1.71570E+00 1.21938E-01 9.19896E-01-1.09001E+01-7.52161E-02 6.32701E-01
 -1       106-2.05271E+01 5.55645E+00 7.18436E+00-1.65617E+01-6.17013E-01 1.05454E+00
 -1       107-9.11383E+00 2.88586E+00 2.98981E+00-1.60820E+01-1.27960E-01 1.18905E+00
 -1       108-1.92183E+01 5.21991E+00 6.40019E+00-1.71629E+01-1.17460E+00 2.49004E+00
 -1       109 4.09593E+00 1.05128E+00-1.09507E+00-1.02784E+01 4.54885E-01 1.83571E+00
 -1       110 2.08675E+01-1.95694E+00-2.53100E+00-1.16743E+01 5.62021E-01 8.35966E+00
 -1       111 2.87686E+01-2.85164E+00-3.91258E+00-1.45391E+01 6.73492E-01 1.15996E+01
 -1       112 4.57115E+01-1.17888E+01-1.70521E+01-6.92783E+00 8.87848E-01 8.26060E+00
 -1       113 1.64066E+01-5.40446E+00-4.77034E+00-8.36959E+00 3.00521E-01 2.44148E-01
 -1       114 3.60220E+01-1.14108E+01-1.29924E+01-8.17499E+00-5.21149E-01-3.83505E-01
 -1       115 5.43970E+00-3.18935E+00-1.51196E+00-2.37733E+00-4.54280E-01-5.19435E-01
 -1       116-1.89900E+00 1.38085E+00-3.77032E-02-3.20635E+00 5.77303E-02 4.47220E-01
 -1       117-2.50867E-01 1.44265E+00-6.33502E-01-8.30769E+00-8.84952E-02 1.61364E-01
 -1       118 1.19315E+00-1.58962E+00-5.72816E-02-8.53136E+00-4.81703E-01 1.42346E-01
 -1       119 5.32049E-01 2.63100E-01-6.81241E-01-8.80170E+00 2.50405E-01 1.64008E+00
 -1       120-1.38625E+00 1.33366E+00-3.71766E-01-1.04431E+01-4.61276E-02 4.29553E-01
 -1       121 7.22310E+00-9.25244E-01-2.03128E+00-1.15283E+01 5.84602E-01 2.61128E+00
 -1       122 3.31191E+01-3.96179E+00-8.99365E+00-1.55744E+01 9.20544E-01 1.05299E+01
 -1       123 7.63184E+00-4.13059E+00-1.86401E+00-9.85629E+00 7.25869E-02-1.83509E-02
 -1       124 9.11131E+00-1.76495E+00-3.51992E+00-1.72487E+01 3.62129E-01 1.92778E+00
 -1       125 1.94048E+01-3.74804E+00-7.07877E+00-1.72327E+01 5.35055E-01 4.19610E+00
 -1       126 1.18978E+01-4.11512E+00-3.67438E+00-1.59845E+01 1.11072E+00 1.76853E+00
 -1       127 5.09951E+01-1.66630E+01-1.11232E+01-9.04354E+00 1.13919E+00 3.89179E+00
 -1       128 3.56770E+01-1.12199E+01-1.12929E+01-1.10653E+00 7.89877E-02 4.87685E+00
 -1       129 1.73201E+01-5.22964E+00-6.08122E+00-1.13209E+00-5.88688E-01 4.93322E+00
 -1       130 4.92737E+00-1.41560E+00-2.77767E+00 4.02867E-01-7.78740E-02 1.47026E+00
 -1       131 2.13304E+00-1.80612E-01-2.46587E+00 1.39462E-01-5.06414E-01 5.42799E+00
 -1       132 1.07163E+00-5.05620E-01-1.82466E-01-2.03140E-01-3.18798E-01 5.31378E+00
 -1       133 2.47496E-01-6.01590E-01 3.64219E-01-6.41810E-01 6.43633E-02 2.52436E+00
 -1       134 2.65178E+01-3.63861E+00-3.53944E+00-7.93403E+00-1.04849E+00 4.59736E+00
 -1       135 8.93576E+00-3.48804E+00-2.55022E+00-3.19624E+00 3.25294E-01 8.13746E+00
 -1       136 1.58841E+01-6.73990E+00-3.37249E+00-2.63032E+00-1.98600E-01 9.22280E+00
 -1       137 3.36754E+01-6.70158E+00-4.55026E+00-9.88796E+00-7.21211E-01 9.78797E+00
 -1       138 4.05003E+01-9.20536E+00-4.95464E+00-1.20601E+01 2.02587E-01 1.12754E+01
 -1       139 7.70520E+00-2.02655E+00-4.36445E+00 2.11423E-01-1.01700E-01 6.10154E+00
 -1       140 2.39021E+00-1.04404E+00-8.37851E-01-2.33376E+00-6.12644E-03 6.46514E+00
 -1       141 4.09210E+01-1.02712E+01-6.69910E+00-9.55253E+00-1.22343E+00 1.31695E+01
 -1       142 2.39813E+01-1.02369E+01-5.31045E+00-2.89674E+00-2.76676E-02 1.28144E+01
 -1       143 1.24456E+01-3.87076E+00-3.02247E+00-2.48693E+00 3.41305E-01 1.17272E+01
 -1       144 1.23846E+01-3.44650E+00-5.38481E+00-1.16627E+00 8.39488E-01 1.03021E+01
 -1       145-2.36496E+01 7.73364E+00 4.33810E+00-3.53245E+00 5.04522E-02 5.02282E+00
 -1       146-1.24503E+01 4.02998E+00 3.19292E+00-3.30421E+00 8.30484E-02 8.47572E+00
 -1       147-7.90172E+00 2.51978E+00 2.33678E+00-2.26834E+00-2.16416E-02 7.68296E+00
 -1       148-3.28938E-01 6.46482E-01-5.81471E-01 6.92461E-01 1.84740E-02 2.56942E+00
 -1       149-3.82111E+00 1.15403E+00 2.90802E+00 2.58672E-01 4.79734E-01 5.32228E+00
 -1       150-2.57270E+00 1.62163E+00 9.19448E-01 6.76539E-01 7.70407E-02 5.95548E+00
 -1       151-5.18258E+00 1.85782E+00 2.82294E+00 4.35488E-01 3.23194E-01 1.18073E+00
 -1       152-5.18717E+01 1.75649E+01 9.97271E+00-5.00757E+00-1.57065E+00 5.88624E+00
 -1       153-3.99344E+01 1.29285E+01 1.09268E+01-1.89332E+00 1.66202E-01 7.14537E+00
 -1       154-2.30398E+01 6.89580E+00 6.85911E+00-1.80276E+00-1.50005E-01 6.53430E+00
 -1       155-4.58840E+01 1.06369E+01 5.63152E+00-1.28739E+01-1.29392E+00 1.24699E+01
 -1       156-3.98057E+01 9.85812E+00 4.60549E+00-1.12157E+01-8.24386E-01 9.26573E+00
 -1       157-2.88755E+00 9.32088E-01 1.11281E+00-6.78118E-01 4.58685E-02 7.57326E+00
 -1       158-1.04611E+01 3.01307E+00 4.37364E+00-1.44054E+00 1.34809E-01 6.03388E+00
 -1       159-3.25666E+01 5.91837E+00 4.41095E+00-1.08655E+01-1.68200E+00 6.62131E+00
 -1       160-2.69858E+01 1.01610E+01 5.49395E+00-5.48631E+00-6.76485E-01 1.27469E+01
 -1       161-1.33355E+01 4.09172E+00 3.63136E+00-2.16555E+00-2.73565E-01 1.15466E+01
 -1       162-1.79419E+01 5.86762E+00 5.40272E+00-2.48651E+00-6.76403E-01 1.11342E+01
 -1       163-6.06216E-01 3.00275E+00-2.10336E+00 3.53963E-01-4.77385E-01 4.57528E-01
 -1       164-1.85853E-02 2.73284E+00-1.93536E+00 5.41835E-02 2.17623E-01 1.43498E+00
 -1       165-8.48299E-01 2.15028E+00 6.69158E-01 1.27043E-01 4.45694E-01 9.42902E-01
 -1       166-1.28277E+00 2.93242E+00 1.39022E+00 3.86784E-01 7.49908E-01-3.76830E-01
 -1       167-1.94958E+00 3.02543E+00 1.62310E+00-1.06597E+00 8.99772E-01-6.27586E-01
 -1       168-8.21695E-01-9.11115E-01 2.77009E+00-1.35765E+00 6.95454E-01-6.79996E-01
 -1       169-2.31327E-01-2.59238E+00 2.32325E+00-4.99125E-01-1.56245E-01-2.60495E-01
 -1       170 1.25904E+00-2.19818E+00-1.77478E+00-1.53147E-01-8.65175E-01-1.22497E-01
 -1       171 7.24524E-01-2.82996E+00 1.11639E+00 9.69869E-02-6.64831E-01 8.98335E-01
 -1       172 1.22631E+00-2.40835E+00-1.44549E+00 6.30750E-01-4.92583E-01 1.09576E+00
 -1       173 1.98424E+00-3.71432E+00-1.38149E+00-1.31519E+00-8.85084E-01-2.91638E-01
 -1       174 7.10294E-01-5.29843E-01-1.65284E+00-1.47879E+00-7.25850E-01-6.67021E-02
 -1       175-3.95868E-01 2.86178E+00-2.16639E+00-1.52094E+00-7.04708E-01 3.02992E-01
 -1       176-2.84670E+00 2.76747E+00 2.97978E+00 1.12029E+00 9.22636E-01 4.54830E-01
 -1       177-9.49158E-01 2.65667E+00 3.13239E-01-1.00670E+00 7.60191E-01 5.98561E-01
 -1       178 6.25530E-01-3.67578E+00 2.25375E+00-1.17695E+00 4.98907E-02-2.67320E-01
 -1       179 1.40835E-01-9.78332E-01 1.50573E+00-3.12676E-01 6.60094E-01 7.07918E-01
 -1       180 2.73085E-01-3.40224E-01-1.01944E+00-1.16343E+00-6.66062E-02 7.54290E-01
 -1       181-4.21615E+00 7.41656E-06 1.17162E-05-8.91535E+00-3.26561E-06 5.95761E+00
 -1       182-2.42221E+01-5.49728E-05-2.41359E-05-1.76693E+01 5.61523E-06 9.24218E+00
 -1       183-1.93480E+01 2.56312E-01 1.20859E+00-1.48553E+01-1.08361E+00 5.71840E+00
 -1       184-3.94809E+01-2.30705E-05-6.52571E-05-1.59119E+01 2.01952E-06 1.86025E+01
 -1       185-2.90508E+01-1.57527E-05-7.12397E-05-1.32796E+01 4.69317E-06 1.71077E+01
 -1       186-1.66951E+01-3.83971E-01 1.17426E+00-1.25620E+01-2.95570E-01 1.09827E+01
 -1       187 8.81822E+00 6.87994E-01-5.34310E-01-1.37243E+01 1.13476E-01 4.36902E+00
 -1       188 3.94981E+01-1.53719E+00-1.29168E+00-1.70282E+01 1.43017E+00 1.67602E+01
 -1       189 2.93858E+01-4.15127E-01-1.74870E+00-1.86578E+01-8.67381E-01 1.21836E+01
 -1       190 2.10630E+01 3.18272E-05 2.41119E-05-1.59229E+01-6.72646E-07 7.20046E+00
 -1       191 2.05067E+01-9.23346E-01-1.72790E-02-1.40499E+01 1.83550E-01 1.37416E+01
 -1       192 8.28145E+00 1.11420E-05 1.80889E-05-9.90318E+00-2.08858E-06 9.00149E+00
 -1       193-2.82531E+01-1.93465E-01 4.30216E-01-1.89285E+01 5.03633E-01 1.31845E+01
 -1       194-3.53535E+00 7.41125E-01-2.33110E-02-1.35318E+01-2.77614E-01 8.79929E+00
 -1       195 1.61519E+01 1.18174E-05 2.00019E-05-1.17861E+01-3.71509E-06 1.21223E+01
 -1       196 2.69856E-01-8.49172E-02 4.68152E-01-1.46275E+01-2.20015E-02 9.62132E+00
 -1       197-7.15082E+00-3.30330E-01-3.25066E-03-1.45489E+01-1.00849E-01 1.00667E+01
 -1       198-3.45022E+00-2.00974E-06-1.58859E-06-1.42568E+01 9.70047E-07 9.93452E+00
 -1       199-9.57035E+00 3.12748E+00 3.49925E+00-6.91695E+00-1.14973E-01 3.49668E+00
 -1       200-3.15416E+00 2.34224E+00 8.54648E-01-6.66394E+00 5.18579E-01 2.12685E+00
 -1       201-8.27361E+00 3.13822E+00 2.76336E+00-1.28328E+01-4.24147E-01 3.07011E+00
 -1       202-3.73590E+00 1.61553E+00 2.10783E+00-4.33199E+00 4.35588E-01 3.50472E+00
 -1       203-3.04186E+00 1.84109E+00 2.06889E+00-6.03119E+00 7.21618E-01 3.35005E+00
 -1       204 8.39771E-01 9.94340E-01-1.41791E+00-7.58752E+00 6.15349E-02 2.07084E+00
 -1       205-3.11454E-01 1.21512E+00-1.19873E+00-5.18022E+00 1.25101E-01 2.04159E+00
 -1       206 3.43593E+00-1.27355E+00-2.12666E+00-2.89900E+00-5.38274E-01 3.95521E+00
 -1       207 3.89805E+00-2.67372E+00-1.35844E+00-5.52444E+00-7.28684E-01 2.34410E+00
 -1       208 3.57237E+00-2.93536E+00-1.11173E+00-4.78127E+00-3.43190E-01 3.59666E+00
 -1       209-4.68422E+00 9.21609E-01 1.95628E+00-1.68868E+01-3.95444E-01 1.03062E+01
 -1       210 2.06031E+00-1.12459E+00-3.93956E-01-1.15493E+01-6.98949E-03 7.50878E+00
 -1       211 6.12178E+00-2.67634E+00-1.05578E+00-1.01077E+01-1.26833E-01 1.03164E+01
 -1       212 5.10948E+00-1.43348E+00-8.42740E-01-1.54821E+01 9.87964E-02 1.07566E+01
 -1       213 9.99639E+00-2.79135E+00-1.99936E+00-1.41245E+01 4.67712E-02 1.30062E+01
 -1       214 1.29791E+01-5.28433E+00-2.98638E+00-7.15065E+00 1.71354E-01 1.07039E+01
 -1       215-2.83637E+00 5.30732E-01 1.07739E+00-1.73314E+01-2.13270E-01 1.25728E+01
 -1       216-1.84166E+01 5.44641E+00 4.46165E+00-1.37839E+01-6.73714E-01 1.31410E+01
 -1       217-3.42884E+00 1.91463E+00 6.35774E-01-1.35973E+01 9.53816E-02 9.31890E+00
 -1       218-1.68556E+01 6.01420E+00 5.01246E+00-8.86307E+00-3.84115E-01 9.58732E+00
 -1       219-1.55912E+01 6.01404E+00 3.58780E+00-9.35223E+00-5.83566E-01 1.16609E+01
 -1       220 2.97150E+00-5.28045E-01-1.49289E+00-1.28798E+01-6.97663E-03 9.00872E+00
 -1       221 1.38871E+01-3.87928E+00-3.32538E+00-1.27801E+01-2.36609E-01 1.29167E+01
 -1       222 1.46865E+01-5.29321E+00-5.48374E+00-5.28154E+00 4.07183E-01 8.62191E+00
 -1       223 3.58868E+01-8.74161E+00-6.64972E+00-1.55418E+01 9.44599E-01 8.20986E+00
 -1       224 2.44956E+01-7.90856E+00-8.03945E+00-9.12990E+00 9.57230E-01 6.05205E+00
 -1       225 1.38457E+01-5.01789E+00-4.49170E+00-1.29120E+01 8.86149E-01 4.31295E+00
 -1       226 1.03025E+01-3.54247E+00-3.41198E+00-4.81912E+00 1.77181E-01 3.61200E+00
 -1       227-1.45087E+00 1.40350E+00 1.80205E-01-1.08636E+01 7.16724E-01 8.44869E+00
 -1       228 1.13863E+01-2.81507E+00-2.91646E+00-1.82921E+01 1.63574E-01 9.54271E+00
 -1       229 8.88320E+00-2.71450E+00-3.09034E+00-1.57452E+01 6.27459E-01 6.66578E+00
 -1       230 5.88890E-01 4.47149E-01-5.35120E-01-1.46311E+01-8.89068E-02 6.31869E+00
 -1       231 4.03215E+00-1.99980E-01-1.91945E+00-1.63486E+01 3.14318E-01 7.67745E+00
 -1       232 6.43802E+00-2.17392E+00-2.70653E+00-5.00945E+00 1.88663E-02 8.19432E+00
 -1       233-5.28094E+00 2.70625E+00 9.31021E-01-9.51322E+00-1.46529E-01 6.37563E+00
 -1       234-2.46488E+00 9.45636E-01 5.94435E-01-7.34615E+00-8.03571E-02 6.80154E+00
 -1       235-1.01365E+01 4.10626E+00 2.18347E+00-9.61811E+00-4.47021E-01 1.09408E+01
 -1       236-5.74852E+00 2.12526E+00 1.57165E+00-7.56851E+00 1.75294E-02 1.02202E+01
 -1       237 2.95665E+00-6.05891E-01-1.92674E+00-5.46090E+00 3.92305E-02 3.90452E+00
 -1       238 5.39513E+00-1.82513E+00-1.91789E+00-1.20914E+01 1.13614E-01 4.11367E+00
 -1       239-1.18733E+01 3.46863E+00 2.97338E+00-1.02417E+01 3.71363E-01 1.03313E+01
 -1       240-1.88515E+01 7.17650E+00 3.93336E+00-9.70028E+00 4.83048E-04 1.11456E+01
 -1       241 1.28886E+00-1.85250E+00 6.91595E-01-2.30530E+00 1.88021E-01 3.63405E+00
 -1       242 3.02821E+00-2.06301E+00-9.03450E-01-1.62571E+00-2.29869E-01 4.96682E+00
 -1       243 1.51126E+00-1.04036E+00-2.36036E-01-7.89756E+00 6.00689E-02 8.05188E+00
 -1       244-1.39185E+00-3.76170E-01 1.42048E+00-7.27061E+00 4.36830E-01 2.30270E+00
 -1       245-9.60522E-02-1.08235E+00 7.65702E-01-6.28942E+00-3.16057E-02 4.05542E+00
 -1       246-2.32599E+01 3.48762E+00 8.84162E+00-1.60101E+01-7.86270E-01 6.33901E+00
 -1       247-1.75707E+01 3.75410E+00 5.47564E+00-1.90142E+01-8.99972E-01 9.08618E+00
 -1       248-7.71734E+00 5.57600E-01 1.43639E-01-1.72670E+01-5.61915E-01 1.21499E+01
 -1       249-1.02117E+01 1.40913E+00 2.03610E+00-1.57294E+01-8.02572E-01 1.08290E+01
 -1       250-3.99441E+01 7.45443E+00 9.59655E+00-1.78670E+01-1.12693E+00 8.16932E+00
 -1       251-2.07326E+00 1.65697E+00 4.05028E-01-6.61462E+00-7.58561E-02 4.21080E+00
 -1       252-1.03522E+00 1.54336E+00-5.01536E-01-8.53823E+00 2.91838E-02 6.35578E+00
 -1       253-1.09965E+01 3.25682E+00 2.77424E+00-1.38350E+01-2.68257E-01 1.29150E+01
 -1       254 5.29114E+00-1.00314E+00-1.81496E+00-1.83150E+01 3.35096E-01 1.05893E+01
 -1       255 7.12383E+00-3.24986E+00-8.89692E-01-1.11676E+01 1.63925E-01 7.51942E+00
 -1       256-2.25072E+01 8.13081E+00 5.89481E+00-8.82920E+00-3.77619E-01 6.60916E+00
 -1       257 2.38654E+00-2.15702E-01 8.85602E-02-1.69306E+01 7.81398E-01 1.19583E+01
 -1       258-1.97841E+00-7.99358E-01 1.20958E+00-1.76921E+01-2.78590E-02 1.20299E+01
 -1       259-2.60432E+01 7.48428E+00 3.57161E+00-1.12327E+01-1.29283E+00 1.23289E+01
 -1       260 4.42345E+00-2.66744E+00-1.24932E+00-9.47532E+00-5.27331E-01 9.10182E+00
 -1       261-5.62977E+00 2.01420E+00 1.57676E+00-1.86950E+01-2.68520E-01 8.89077E+00
 -1       262-3.39195E+01 9.60410E+00 1.00492E+01-1.13294E+01-1.44626E+00 8.67840E+00
 -1       263-6.36130E+00 2.26809E+00 2.42933E+00-7.02877E+00 7.19233E-02 7.97739E+00
 -1       264-3.43897E+00 1.92074E+00 8.82852E-01-2.20587E+00 8.84247E-02 5.33103E+00
 -1       265 1.71972E+01-4.52932E+00-5.08102E+00-1.58140E+01 1.08814E+00 7.79314E+00
 -1       266 1.08023E+01-1.71173E+00-3.32028E+00-1.56197E+01 8.97754E-01 8.49754E+00
 -1       267 2.02815E+01-6.15805E+00-4.03534E+00-9.50359E+00 1.00318E+00 1.12141E+01
 -1       268 1.75069E+01-5.66294E+00-3.75303E+00-1.01337E+01 1.17595E+00 1.04893E+01
 -1       269-8.55779E-01-5.39533E-01 8.13267E-01-8.52994E+00-1.74038E-01 4.17811E+00
 -1       270 7.30366E+00-1.55474E+00-2.40274E+00-1.46555E+01 4.34656E-01 7.58403E+00
 -1       271-9.66299E+00 2.58253E+00 2.61437E+00-1.69074E+01-3.95109E-01 7.07585E+00
 -1       272-7.67009E+00-3.56719E-01-1.18943E+00-1.41360E+01-4.09711E-01 4.14100E+00
 -1       273-5.41694E+00 1.04215E+00 2.39522E+00-1.53384E+01-5.76261E-01 4.91693E+00
 -3
    1PSTEP                         7           1           1          
    1PGM                1.000000E+00                                  
    1PGK                2.157313E+11                                  
    1PHID                         -1                                  
    1PSUBC                         0                                  
    1PMODE                         3                                  
  100CL  103 7.39225E+04         273                     2    3MODAL      1
 -4  DISP        4    1
 -5  D1          1    2    1    0
 -5  D2          1    2    2    0
 -5  D3          1    2    3    0
 -5  ALL         1    2    0    0    1ALL
 -1         1 1.82733E+00-6.44235E+02-6.41843E+02
 -1         2-1.58479E+00 6.38414E+02-6.40480E+02
 -1         3-1.16563E+00-6.44760E+02 6.41162E+02
 -1         4 1.76022E-01 6.39165E+02 6.40456E+02
 -1         5 0.00000E+00 0.00000E+00 0.00000E+00
 -1         6 0.00000E+00 0.00000E+00 0.00000E+00
 -1         7 0.00000E+00 0.00000E+00 0.00000E+00
 -1         8 0.00000E+00 0.00000E+00 0.00000E+00
 -1         9 0.00000E+00 0.00000E+00 0.00000E+00
 -1        10 0.00000E+00 0.00000E+00 0.00000E+00
 -1        11 1.87437E+00 2.92975E+02-2.92740E+02
 -1        12 1.88562E+00 5.45227E+02-5.43570E+02
 -1        13-1.78046E+01 6.18680E+02 1.94858E+02
 -1        14 2.39532E+01 6.22906E+02-2.17005E+02
 -1        15 2.66452E+00 2.93849E+02 2.95821E+02
 -1        16 4.51243E+00 5.47605E+02 5.52320E+02
 -1        17 0.00000E+00 0.00000E+00 0.00000E+00
 -1        18 0.00000E+00 0.00000E+00 0.00000E+00
 -1        19-4.08668E-01-2.88911E+02-2.88564E+02
 -1        20 2.38038E+00-5.48642E+02-5.47012E+02
 -1        21 1.41730E+01-6.21979E+02 2.09265E+02
 -1        22-1.71682E+01-6.24286E+02-2.05093E+02
 -1        23 3.00822E+00-2.92379E+02 2.91502E+02
 -1        24-5.28594E+00-5.45587E+02 5.50660E+02
 -1        25 2.00201E+01-2.02118E+02-6.21421E+02
 -1        26-1.64138E+01 2.30887E+02-6.19856E+02
 -1        27 0.00000E+00 0.00000E+00 0.00000E+00
 -1        28 0.00000E+00 0.00000E+00 0.00000E+00
 -1        29-1.98841E+01-2.19954E+02 6.25167E+02
 -1        30 2.06496E+01 2.48236E+02 6.23262E+02
 -1        31 0.00000E+00 0.00000E+00 0.00000E+00
 -1        32 0.00000E+00 0.00000E+00 0.00000E+00
 -1        33-3.95161E+01 2.47077E+02 7.13176E+01
 -1        34 4.08858E+01 4.10588E+02-1.42218E+02
 -1        35-3.23876E+01 5.13866E+02 1.47695E+02
 -1        36 2.98134E+01-2.45674E+02 7.16775E+01
 -1        37-3.79077E+01-4.14179E+02-1.40260E+02
 -1        38 3.17445E+01-5.13127E+02 1.58142E+02
 -1        39 3.99604E+01-1.77443E+02-4.43596E+02
 -1        40-1.95268E+01 9.38321E+01-5.50627E+02
 -1        41-3.68966E+01 9.12203E+01-3.33446E+02
 -1        42-4.71336E+01-1.43316E+02 3.04147E+02
 -1        43-5.27013E+00-2.38759E+01 5.41507E+02
 -1        44 3.27529E+01 7.88914E+01 3.12518E+02
 -1        45-1.85425E+00-1.66869E+02 1.66627E+02
 -1        46-9.53321E-01 2.56521E+02 1.08904E+02
 -1        47 1.96331E+00 1.33134E+01-2.32320E+02
 -1        48 0.00000E+00 0.00000E+00 0.00000E+00
 -1        49 0.00000E+00 0.00000E+00 0.00000E+00
 -1        50 0.00000E+00 0.00000E+00 0.00000E+00
 -1        51 2.33367E+00-1.63409E+02-2.11463E+02
 -1        52-7.58146E-01 2.10567E+02 3.71099E+01
 -1        53-7.31211E-01-1.22143E+02 1.40850E+02
 -1        54-3.03325E-01 3.33894E+01 1.69976E+00
 -1        55 0.00000E+00 0.00000E+00 0.00000E+00
 -1        56 0.00000E+00 0.00000E+00 0.00000E+00
 -1        57 0.00000E+00 0.00000E+00 0.00000E+00
 -1        58 1.23179E+00 1.36723E+02-1.36850E+02
 -1        59 1.22363E+00 4.34492E+02-4.33996E+02
 -1        60-5.85126E-01 6.02916E+02-6.04889E+02
 -1        61-1.97206E+01 6.31862E+02 4.19531E+02
 -1        62 2.25860E+00 6.16820E+02-1.01938E+01
 -1        63 1.93871E+01 6.32847E+02-4.30260E+02
 -1        64 9.73060E-01 1.41829E+02 1.40441E+02
 -1        65 3.42860E+00 4.36499E+02 4.37286E+02
 -1        66 1.19472E+00 6.04958E+02 6.07201E+02
 -1        67 0.00000E+00 0.00000E+00 0.00000E+00
 -1        68 0.00000E+00 0.00000E+00 0.00000E+00
 -1        69 0.00000E+00 0.00000E+00 0.00000E+00
 -1        70-1.16252E+00-1.36292E+02-1.35881E+02
 -1        71 1.66460E+00-4.33960E+02-4.33655E+02
 -1        72 2.03645E+00-6.08165E+02-6.06251E+02
 -1        73 1.81775E+01-6.36893E+02 4.26189E+02
 -1        74 2.37611E-01-6.18530E+02 3.45131E+00
 -1        75-1.87039E+01-6.37065E+02-4.25129E+02
 -1        76 1.62482E+00-1.41218E+02 1.41990E+02
 -1        77-1.81678E+00-4.35328E+02 4.34797E+02
 -1        78-2.33017E+00-6.08168E+02 6.06413E+02
 -1        79 2.16504E+01-4.25315E+02-6.34588E+02
 -1        80-3.82502E-01 1.59711E+01-6.14589E+02
 -1        81-1.89162E+01 4.36330E+02-6.33626E+02
 -1        82 0.00000E+00 0.00000E+00 0.00000E+00
 -1        83 0.00000E+00 0.00000E+00 0.00000E+00
 -1        84 0.00000E+00 0.00000E+00 0.00000E+00
 -1        85-2.02827E+01-4.34729E+02 6.35326E+02
 -1        86 1.76357E+00 1.37219E+01 6.16721E+02
 -1        87 1.82324E+01 4.45436E+02 6.34511E+02
 -1        88 0.00000E+00 0.00000E+00 0.00000E+00
 -1        89 0.00000E+00 0.00000E+00 0.00000E+00
 -1        90 0.00000E+00 0.00000E+00 0.00000E+00
 -1        91-2.86183E+01 1.14689E+02 7.23340E+01
 -1        92-5.54669E+01 2.66637E+02 1.71995E+02
 -1        93-2.47888E+01 1.24771E+02 3.73388E+01
 -1        94-4.67060E+00 1.30583E+02-6.68627E-01
 -1        95 4.58457E+01 1.42402E+02-9.23261E+01
 -1        96 5.44491E+01 3.56595E+02-2.38325E+02
 -1        97 3.93100E+01 4.82817E+02-3.25876E+02
 -1        98 2.50641E+01 6.00956E+02-4.05697E+02
 -1        99-2.42458E+01 6.03798E+02 3.95639E+02
 -1       100 2.93765E+00 5.89382E+02-1.47091E+01
 -1       101-2.34559E+01 5.90324E+02 1.73350E+02
 -1       102-3.50589E+01 5.30786E+02 3.43549E+02
 -1       103-5.13330E+01 4.17288E+02 2.67053E+02
 -1       104 3.06409E+01 2.16240E+02-7.15563E+01
 -1       105 2.94490E+01 5.61842E+02-1.90426E+02
 -1       106-3.76275E+01 3.91019E+02 1.14965E+02
 -1       107 3.80523E+00 4.63652E+02-1.47950E+01
 -1       108 2.12593E+00 3.31309E+02-6.38900E+00
 -1       109 3.19645E+01-1.11168E+02 7.18439E+01
 -1       110 1.87135E+01-1.22755E+02 3.49232E+01
 -1       111 5.32847E+00-1.27844E+02 1.49082E+00
 -1       112-4.51955E+01-1.42302E+02-9.02498E+01
 -1       113-3.89338E+01-4.85673E+02-3.26678E+02
 -1       114-5.13311E+01-3.53999E+02-2.37616E+02
 -1       115-2.47107E+01-6.05684E+02-3.99272E+02
 -1       116 2.41665E+01-6.05849E+02 4.00976E+02
 -1       117 2.15683E+01-5.91262E+02 1.91196E+02
 -1       118 1.46816E+00-5.89195E+02-2.05441E+00
 -1       119 3.52509E+01-5.31170E+02 3.50977E+02
 -1       120 4.95948E+01-4.15366E+02 2.72189E+02
 -1       121 5.25439E+01-2.65665E+02 1.71632E+02
 -1       122-2.72250E+01-2.13369E+02-6.46123E+01
 -1       123-2.55028E+01-5.63439E+02-1.85000E+02
 -1       124 3.45045E+01-3.89795E+02 1.20565E+02
 -1       125-3.79027E+00-3.32345E+02-6.73055E+00
 -1       126-1.59666E+00-4.64619E+02-4.76113E+00
 -1       127 4.27131E+01-9.48224E+01-1.41215E+02
 -1       128 5.28922E+01-2.58718E+02-3.72119E+02
 -1       129 4.02642E+01-3.49710E+02-4.97878E+02
 -1       130 2.76477E+01-3.99241E+02-6.03798E+02
 -1       131 4.70807E+00-4.27331E+01-5.98860E+02
 -1       132-1.76364E+01 1.63950E+02-5.99594E+02
 -1       133-2.38745E+01 4.10342E+02-6.03399E+02
 -1       134-4.52881E+01 9.38311E+01-1.41988E+02
 -1       135-3.89207E+01 2.90763E+02-4.48959E+02
 -1       136-5.45923E+01 2.00726E+02-3.13301E+02
 -1       137-2.46914E+01 4.85808E+01-1.70531E+02
 -1       138 1.70619E+00-7.43698E+00-1.75630E+02
 -1       139 2.83465E+01-2.03826E+02-5.71257E+02
 -1       140-3.20049E+01 3.20617E+02-5.48270E+02
 -1       141 3.24659E+01-8.67013E+01-2.33983E+02
 -1       142 5.94455E+00-2.37719E+01-3.88804E+02
 -1       143-2.81660E+01 1.01444E+02-4.54985E+02
 -1       144 1.03611E+01-5.60366E+01-5.00965E+02
 -1       145-3.98560E+01-1.11702E+02 1.46571E+02
 -1       146-5.21252E+01-2.19659E+02 2.97743E+02
 -1       147-4.38890E+01-3.25521E+02 4.39032E+02
 -1       148-2.73671E+01-4.09748E+02 6.03633E+02
 -1       149 1.15028E+01 1.04101E+02 5.96354E+02
 -1       150-1.41300E+01-1.19207E+02 5.97846E+02
 -1       151 2.37671E+01 4.19181E+02 6.04342E+02
 -1       152 4.27019E+01 9.77373E+01 1.46092E+02
 -1       153 5.53766E+01 1.90484E+02 3.05309E+02
 -1       154 4.16079E+01 2.81641E+02 4.42196E+02
 -1       155 2.22801E+01 4.47986E+01 1.59682E+02
 -1       156-9.34076E-01-6.72054E+00 1.62878E+02
 -1       157-3.67555E+01-2.84356E+02 5.42697E+02
 -1       158 3.28805E+01 2.59234E+02 5.43457E+02
 -1       159-3.11827E+01-6.17278E+01 1.54045E+02
 -1       160-1.27489E+01-3.37721E+01 3.09223E+02
 -1       161-3.12237E+01-1.15300E+02 4.37572E+02
 -1       162 1.42047E+01 4.65275E+01 4.40219E+02
 -1       163 1.05558E+00-4.26227E+02 4.19462E+02
 -1       164-7.07976E+00-1.92533E+02 3.94237E+02
 -1       165 1.04488E+00 3.67124E+01 3.91463E+02
 -1       166-3.06180E+00 4.36508E+02 4.13330E+02
 -1       167-5.09872E+00 4.34353E+02 1.51865E+02
 -1       168 3.48227E+00 4.32278E+02-4.97280E+01
 -1       169-1.02812E+00 4.29305E+02-4.21817E+02
 -1       170 1.81788E+00-4.17534E+02-4.17105E+02
 -1       171-2.23764E+00 1.21565E+02-4.24236E+02
 -1       172 5.92736E+00-9.14359E+01-4.23140E+02
 -1       173-3.52640E-01-3.04050E+02-2.17791E+02
 -1       174-1.18024E+00-3.90871E+02-1.34291E+01
 -1       175 1.94478E+00-3.94177E+02 1.88508E+02
 -1       176 2.56009E+00 2.52940E+02 3.65918E+02
 -1       177-4.11788E-01 4.66002E+01 1.36296E+02
 -1       178 3.07378E+00 3.17049E+02-2.22132E+02
 -1       179 9.13570E-01 1.35124E+02-6.29922E+01
 -1       180-5.62273E-01-7.60995E+01-3.38611E+01
 -1       181 0.00000E+00 0.00000E+00 0.00000E+00
 -1       182 0.00000E+00 0.00000E+00 0.00000E+00
 -1       183 0.00000E+00 0.00000E+00 0.00000E+00
 -1       184 0.00000E+00 0.00000E+00 0.00000E+00
 -1       185 0.00000E+00 0.00000E+00 0.00000E+00
 -1       186 0.00000E+00 0.00000E+00 0.00000E+00
 -1       187 0.00000E+00 0.00000E+00 0.00000E+00
 -1       188 0.00000E+00 0.00000E+00 0.00000E+00
 -1       189 0.00000E+00 0.00000E+00 0.00000E+00
 -1       190 0.00000E+00 0.00000E+00 0.00000E+00
 -1       191 0.00000E+00 0.00000E+00 0.00000E+00
 -1       192 0.00000E+00 0.00000E+00 0.00000E+00
 -1       193 0.00000E+00 0.00000E+00 0.00000E+00
 -1       194 0.00000E+00 0.00000E+00 0.00000E+00
 -1       195 0.00000E+00 0.00000E+00 0.00000E+00
 -1       196 0.00000E+00 0.00000E+00 0.00000E+00
 -1       197 0.00000E+00 0.00000E+00 0.00000E+00
 -1       198 0.00000E+00 0.00000E+00 0.00000E+00
 -1       199-9.15534E+00 3.80300E+02 2.95999E+02
 -1       200-5.25904E+00 4.12577E+02 1.12306E+02
 -1       201-7.50346E+00 3.69779E+02 9.47887E+01
 -1       202 2.31104E+00 2.32045E+02 3.22354E+02
 -1       203-9.72916E-01 2.39810E+02 7.35205E+01
 -1       204 5.84665E+00-3.74939E+02 1.75092E+02
 -1       205-1.12622E+00-4.00382E+02 3.91440E+02
 -1       206 8.18821E+00-1.84714E+02-4.14067E+02
 -1       207-4.98564E+00-3.89856E+02-2.12351E+02
 -1       208 2.86162E+00-8.20757E+01-2.28060E+02
 -1       209-3.80129E-01 1.10877E+02 1.57436E+01
 -1       210-4.37571E-01 2.42912E+01-8.66465E+01
 -1       211 2.80884E-01 1.50591E+02-2.14044E+02
 -1       212 6.27249E-01-3.87895E+01-8.36180E+01
 -1       213-3.62862E+00 5.98271E+01-1.55788E+02
 -1       214 7.85228E-02-3.83990E+00-3.14522E+02
 -1       215-5.90979E-02-2.83826E+01 5.88704E+01
 -1       216 4.77083E+00 5.59700E+01 1.52063E+02
 -1       217 5.44695E-01 3.07713E+01 9.45539E+01
 -1       218 2.69857E+00 1.44891E+02 2.41037E+02
 -1       219-5.42480E-01-9.85313E-01 2.54543E+02
 -1       220-5.48164E-02-1.41845E+02-1.99439E+01
 -1       221 3.19617E+00-5.19567E+01-1.83301E+02
 -1       222 1.20138E+01-1.75248E+02-3.48397E+02
 -1       223-1.92798E+00-1.41284E+02-1.40138E+02
 -1       224 3.60656E-01-2.99126E+02-2.86391E+02
 -1       225-8.72051E+00-3.19118E+02-1.78028E+02
 -1       226 4.59045E+00-3.57818E+02-3.80197E+02
 -1       227 4.75199E+00-2.00384E+02 1.74656E+02
 -1       228-2.52282E+00-1.57338E+02-5.89028E+01
 -1       229-1.32320E+00-2.76373E+02-9.05756E+00
 -1       230 7.99068E+00-3.09102E+02 1.49253E+02
 -1       231 9.82175E+00-2.29303E+02 1.09278E+02
 -1       232 3.33866E+00-3.39356E+01-3.81051E+02
 -1       233 5.25797E+00-3.11765E+02 2.75741E+02
 -1       234-7.35027E+00-2.77355E+02 3.46827E+02
 -1       235-1.16556E+01-1.46119E+02 2.53930E+02
 -1       236-4.95429E+00-7.80062E+01 3.29516E+02
 -1       237 5.57907E-01-1.68913E+02-3.42084E+01
 -1       238-8.45465E-01-3.44698E+02-1.97115E+01
 -1       239-9.34879E+00-5.44760E+01 1.00161E+02
 -1       240 8.01844E-01-2.37278E-01 1.04547E+02
 -1       241-3.04309E+00 3.55683E+02-4.03971E+02
 -1       242-1.70542E+00 6.12993E+01-4.12098E+02
 -1       243 1.70992E+00 1.54340E+02-2.57683E+02
 -1       244 5.90096E+00 4.11908E+02-8.01330E+01
 -1       245 4.68931E-01 1.21301E+02-9.41935E+01
 -1       246-6.97253E+00 9.00358E+01 3.33843E+01
 -1       247-2.64869E+00 1.50615E+02 3.97617E+01
 -1       248 7.06655E-02 4.41122E+01 2.34582E+01
 -1       249-1.99508E-02 8.47453E+01-2.14632E+01
 -1       250 1.99133E-01 7.58418E+01 7.44977E+01
 -1       251-2.84374E-02 3.49959E+01 1.01678E+02
 -1       252-2.09324E+00-1.53544E+02 1.66001E+02
 -1       253-3.71747E+00-5.46339E+01 1.49918E+02
 -1       254 2.84096E+00-1.17927E+02 4.20456E+01
 -1       255-4.45063E-01 2.39232E+02-2.49285E+02
 -1       256 1.30350E-01 2.66363E+02 2.70148E+02
 -1       257 4.53016E-02 1.03819E+01-2.56563E+01
 -1       258 3.17261E-01-1.22716E+01 2.22563E+01
 -1       259 7.49210E+00 5.44015E+01 1.02148E+02
 -1       260-2.57339E+00 1.04336E+02-1.07175E+02
 -1       261 4.14969E+00 1.97576E+02-5.88187E+01
 -1       262 5.79400E-01 1.73306E+02 1.78222E+02
 -1       263 2.26274E-01 9.35448E+01 2.91960E+02
 -1       264-4.04897E+00-9.46778E+01 3.80483E+02
 -1       265-2.39521E+00-1.05478E+02-7.41241E+01
 -1       266 3.56572E-02-6.02406E+01-2.88824E+00
 -1       267 7.69115E+00-4.29225E+01-1.58928E+02
 -1       268-6.35757E+00 2.42654E+01-1.17295E+02
 -1       269 9.64078E+00 3.78753E+02-2.56392E+02
 -1       270 6.77243E+00-7.74321E+01 3.41663E+01
 -1       271-2.38229E+00 2.29468E+02 6.00924E+01
 -1       272-2.35096E+00-7.55296E+01 7.48754E+01
 -1       273 7.18300E+00 3.38043E+02-6.95762E+01
 -3
    1PSTEP                         8           1           1          
    1PGM                1.000000E+00                                  
    1PGK                2.157313E+11                                  
    1PHID                         -1                                  
    1PSUBC                         0                                  
    1PMODE                         3                                  
  100CL  103 7.39225E+04         273                     2    3MODAL      1
 -4  STRESS      6    1
 -5  SXX         1    4    1    1
 -5  SYY         1    4    2    2
 -5  SZZ         1    4    3    3
 -5  SXY         1    4    1    2
 -5  SYZ         1    4    2    3
 -5  SZX         1    4    3    1
 -1         1-3.04995E+04-4.08650E+05 3.65126E+05 2.63485E+05-6.81229E+03 2.33232E+05
 -1         2-5.48449E+04 2.79765E+05-3.54223E+05-1.80707E+05 1.89829E+04 2.26041E+05
 -1         3 8.31586E+04 4.50767E+05-2.83899E+05 2.86420E+05-3.13048E+04-1.94332E+05
 -1         4-1.80679E+04-4.12254E+05 2.97356E+05-2.54682E+05-1.48217E+04-2.05955E+05
 -1         5-3.49209E+05-1.49664E+05-1.49658E+05-6.02807E+06 1.09957E-01-5.99765E+06
 -1         6 2.51347E+05 1.07723E+05 1.07717E+05 5.97304E+06-2.45999E-01-5.99052E+06
 -1         7 1.04144E+06 1.66124E+06 7.00124E+05-4.28819E+06-3.01221E+05 5.24764E+06
 -1         8-5.11072E+06-2.39072E+06-2.25043E+06 5.63445E+06 2.08504E+04 6.25378E+06
 -1         9-6.01372E+06-2.57732E+06-2.57731E+06 7.26033E+06-1.71898E+00 2.24826E+06
 -1        10 3.32979E+06 6.75143E+05 1.16466E+06 7.89110E+06 1.26513E+05-1.22944E+06
 -1        11 2.69225E+05-2.85578E+05 3.41320E+05 3.26760E+06-1.07106E+05-3.16994E+06
 -1        12-1.71750E+05 1.17284E+05 9.40242E+04 1.74791E+06-5.70458E+04-1.44276E+06
 -1        13 5.21332E+05-1.14370E+06 2.06174E+05 1.04797E+06-1.42667E+05-4.50681E+05
 -1        14-3.71282E+05 1.00736E+06-4.73045E+05 1.06087E+06-1.85322E+05 6.95423E+05
 -1        15-8.38933E+04-3.83820E+05-7.86053E+05 3.00878E+06-3.90956E+05 3.24622E+06
 -1        16-1.70914E+05 6.37250E+03 2.31548E+05 1.58302E+06 6.00264E+04 1.62347E+06
 -1        17 4.58497E+06 1.96499E+06 1.96499E+06-7.13582E+06-8.20103E-01 1.97818E+06
 -1        18-4.47333E+06-1.46097E+06-1.87590E+06-7.86528E+06-6.25546E+04-1.33073E+06
 -1        19 3.15124E+05 3.69972E+05-2.46168E+05-3.26542E+06 6.83163E+04-3.02366E+06
 -1        20-1.35286E+05 8.64722E+03 1.35010E+04-1.33079E+06-1.31820E+04-1.38264E+06
 -1        21-7.19690E+05 1.20019E+06-4.99475E+05-1.01890E+06-3.39622E+05-7.09992E+05
 -1        22 4.61994E+05-9.87889E+05 3.38712E+05-1.18508E+06-3.40226E+05 4.59785E+05
 -1        23-3.72470E+05 2.62585E+04 2.47892E+04-3.37818E+06-6.47337E+04 1.89072E+06
 -1        24 3.33055E+05-1.23120E+05-2.57583E+05-1.23869E+06 7.06892E+04 1.57397E+06
 -1        25-4.56399E+05-3.07830E+05 1.03807E+06 5.14538E+05 3.26921E+05-1.15076E+06
 -1        26 6.01295E+05 4.96976E+05-1.20884E+06-6.10966E+05 3.87795E+05-8.51002E+05
 -1        27 4.51179E+06 1.90423E+06 1.16027E+06-1.38802E+06-1.38112E+05-8.01349E+06
 -1        28-7.18466E+06-3.05467E+06-2.62725E+06 1.43151E+06 1.15711E+05-7.70866E+06
 -1        29 7.14021E+05 3.78203E+05-9.59166E+05 1.02244E+06 2.40744E+05 1.20273E+06
 -1        30-4.31298E+05-3.74973E+05 1.09659E+06-5.36957E+05 3.09524E+05 9.38443E+05
 -1        31-4.49237E+06-1.51536E+06-1.45008E+06-2.06240E+06-1.74763E+05 7.09366E+06
 -1        32 5.54139E+06 1.79070E+06 1.70656E+06 1.35650E+06-1.02490E+05 7.41398E+06
 -1        33-1.66179E+06 5.48760E+05-3.08107E+05 8.08646E+06 2.44618E+05 4.71828E+03
 -1        34-7.46675E+05-1.74910E+02-4.06357E+05 6.91886E+06-3.67993E+04-1.13803E+05
 -1        35 8.20591E+05-6.62036E+04 3.93912E+05 5.81916E+06-7.43995E+04-5.50031E+05
 -1        36 1.37741E+06-3.87994E+05 4.12049E+05-7.83433E+06 2.69378E+05 6.81183E+05
 -1        37 2.60634E+05 1.25466E+05 1.36253E+05-6.87296E+06 7.64414E+04-1.66851E+05
 -1        38-7.99996E+05 2.59965E+05-9.63061E+04-5.05412E+06-8.24404E+04-3.55333E+05
 -1        39-5.42460E+05-3.84573E+05 8.17318E+04-3.42051E+05-8.52007E+04-6.60611E+06
 -1        40 6.99817E+05-1.41463E+05-1.01140E+05-1.24692E+05 7.67394E+04-4.42706E+06
 -1        41-2.31667E+05 1.02395E+05 9.25210E+04 1.31000E+05-9.36618E+04-7.58289E+06
 -1        42-7.22146E+04-1.50936E+04 2.85642E+05-8.27017E+05-3.53112E+04 7.31718E+06
 -1        43 2.40503E+05 4.75879E+04-2.02166E+04 1.69749E+05 1.21240E+05 5.00676E+06
 -1        44 1.71538E+05 1.11183E+04-6.43692E+04 3.41639E+05-1.69538E+05 7.65378E+06
 -1        45 1.81468E+04 2.62319E+05-3.26229E+05 1.07463E+05 8.24107E+04-9.33414E+04
 -1        46-1.18364E+04-5.47108E+05 3.51243E+05-3.03677E+04-3.35004E+05-1.44694E+04
 -1        47-1.13465E+05 1.67403E+05-7.70591E+04-7.18645E+04 2.07001E+05-8.34195E+03
 -1        48-2.21532E+05-1.34754E+05 6.18431E+04-1.77664E+06-5.86588E+04 1.99823E+06
 -1        49 3.72701E+05 2.16894E+05-2.19950E+04 3.25656E+06 3.07783E+04 2.09432E+06
 -1        50 6.71713E+04-8.28819E+04-4.93240E+04 2.21329E+05-3.35800E+04-2.59416E+06
 -1        51-5.74299E+04-1.86749E+05 7.30777E+04-8.12701E+05 4.00705E+04-1.08425E+06
 -1        52-1.58358E+04-3.35031E+04-1.04888E+03 1.56535E+06-9.03211E+04 2.06979E+05
 -1        53-3.27779E+05 1.40884E+05-1.31750E+05-1.03937E+06-4.71713E+03 1.34922E+06
 -1        54 2.51014E+04-2.52494E+04 2.63293E+04 6.93155E+05 4.40453E+04 5.80479E+04
 -1        55-6.78602E+06-2.90830E+06-2.90830E+06 6.67937E+06-2.13883E+00 4.26470E+06
 -1        56-1.95647E+06-8.38491E+05-8.38489E+05 7.59518E+06-1.29913E+00 5.82707E+04
 -1        57 7.59780E+06 3.25620E+06 3.25620E+06 6.24024E+06-2.45999E-01-3.89578E+06
 -1        58 1.39314E+05-4.55382E+05 5.37627E+05 4.90240E+06 4.49269E+04-4.68422E+06
 -1        59-4.89223E+04-4.78503E+04-1.17376E+05 2.24990E+06-1.38472E+05-2.26876E+06
 -1        60-1.61907E+05-1.83502E+04 1.90537E+05 6.55604E+05 6.96151E+04-7.07178E+05
 -1        61 5.51465E+05-8.91214E+05 3.57517E+05 4.02363E+05-9.77679E+04-5.87971E+05
 -1        62 1.85480E+05 3.81673E+05 1.83917E+05 1.31605E+06-3.50601E+04-1.21617E+05
 -1        63-6.43354E+05 5.34566E+05-6.51805E+05 3.99715E+05-5.03284E+04 8.95432E+05
 -1        64-3.69974E+05-7.50380E+05-1.02112E+06 3.93410E+06-2.03958E+05 4.95016E+06
 -1        65 4.93370E+04-1.21894E+05-6.46237E+04 2.33452E+06-2.42718E+05 2.46740E+06
 -1        66-2.33927E+05 1.30685E+05-4.19263E+03 6.19281E+05-1.49568E+03 6.12140E+05
 -1        67 7.28277E+06 3.12119E+06 3.12119E+06-6.46180E+06 1.45119E-02 4.12583E+06
 -1        68 1.85987E+06 7.97091E+05 7.97087E+05-7.43183E+06-1.60328E+00 3.34559E+04
 -1        69-7.60000E+06-3.25714E+06-3.25714E+06-6.31084E+06 1.09957E-01-3.85078E+06
 -1        70-2.05615E+04 5.21080E+05-5.06307E+05-4.88262E+06-2.00814E+04-4.71114E+06
 -1        71 1.33063E+05-8.86033E+04-2.15426E+03-2.34170E+06 1.18814E+05-2.11718E+06
 -1        72-5.76765E+04-2.53460E+03-7.62725E+04-5.67966E+05-1.46156E+04-6.28780E+05
 -1        73-6.85837E+05 9.96795E+05-4.58459E+05-5.07387E+05-9.00820E+04-5.52961E+05
 -1        74-1.41438E+05-2.48207E+05-2.00609E+05-9.93171E+05-4.98379E+05-3.90436E+05
 -1        75 6.73332E+05-7.96479E+05 5.48917E+05-5.04374E+05-1.28646E+05 7.25107E+05
 -1        76 5.42739E+05 8.85192E+05 3.10658E+05-3.91972E+06-3.57082E+05 2.60790E+06
 -1        77-6.20255E+05-1.96330E+05-2.82280E+05-2.34335E+06 5.03481E+04 1.45562E+06
 -1        78 2.16360E+05-8.77303E+04-3.62579E+04-6.20139E+05-1.39515E+05 5.24826E+05
 -1        79-6.36278E+05-5.21314E+05 8.33197E+05 7.05289E+05 1.48904E+05-4.93385E+05
 -1        80-2.88176E+03 6.34874E+04 1.12423E+05-2.44161E+05 4.27240E+05-9.28102E+05
 -1        81 5.36658E+05 4.40671E+05-9.87760E+05-4.89642E+05 1.06717E+05-4.67673E+05
 -1        82 6.87567E+06 2.94671E+06 2.94672E+06-4.07704E+06 1.09957E-01-6.24859E+06
 -1        83-6.57921E+05-2.81984E+05-2.81975E+05-1.85051E+05 3.31053E-01-7.43448E+06
 -1        84-7.40896E+06-3.17526E+06-3.17527E+06 3.95508E+06-2.45999E-01-6.23228E+06
 -1        85 8.05682E+05 6.70277E+05-5.23662E+05 9.26327E+05 1.48884E+05 5.68113E+05
 -1        86-1.35696E+04 1.15885E+04-1.06437E+05 1.82533E+05 4.11823E+05 1.13512E+06
 -1        87-4.90795E+05-5.91361E+05 7.88244E+05-6.99297E+05 1.46806E+05 4.23800E+05
 -1        88-1.75733E+06 2.33332E+05-4.57204E+05-3.02114E+06-1.12440E+05 6.59744E+06
 -1        89 7.74578E+05 3.31975E+05 3.31968E+05-6.08944E+04 1.06031E+00 7.40560E+06
 -1        90 2.31884E+06 4.94101E+05 8.43887E+05 3.14692E+06-2.16240E+04 6.43416E+06
 -1        91-3.86132E+06-7.51120E+05-1.48241E+06 6.75617E+06 1.70603E+05 3.07354E+06
 -1        92-1.91047E+06-2.74208E+05-1.17198E+06 6.07344E+06-1.26193E+05 9.99950E+05
 -1        93-3.47264E+06-3.50847E+05-9.33576E+05 7.64760E+06 3.13938E+05 1.22744E+06
 -1        94 1.62828E+05 2.47931E+05 1.84776E+05 8.18994E+06 2.84714E+05-6.07605E+05
 -1        95 3.76246E+06 9.21770E+05 1.73719E+06 6.14833E+06 2.40049E+04-1.49666E+06
 -1        96-1.21000E+06-2.59892E+05-6.56767E+05 5.35577E+06-1.50799E+05-6.99009E+05
 -1        97-1.12534E+06 7.48848E+04-3.04655E+05 4.16419E+06-9.68036E+04-3.90956E+05
 -1        98-6.75499E+05 3.69855E+05-2.13699E+05 1.31773E+06-1.44191E+05-9.82004E+04
 -1        99 5.01995E+05-4.69824E+05 2.91721E+04 1.27217E+06-1.09287E+05 2.71100E+05
 -1       100 2.42867E+05 1.38874E+05 1.05274E+04 3.59115E+06-2.87552E+05-3.27863E+03
 -1       101 7.76434E+05-4.03788E+05 1.16207E+05 3.29816E+06-1.41332E+05-1.32853E+05
 -1       102 9.87219E+05 1.30374E+05 5.76439E+05 3.49894E+06 4.78175E+04 1.63013E+05
 -1       103 1.48341E+06 2.12113E+05 4.80993E+05 4.64290E+06-1.01067E+05 2.69266E+05
 -1       104 1.67684E+06-3.40192E+04 2.36670E+05 7.94223E+06 8.87566E+04-2.22056E+05
 -1       105-5.50640E+05 2.14303E+05-1.81656E+04 4.10463E+06-3.55523E+04-2.30648E+05
 -1       106 4.38414E+05 1.99661E+05 3.30248E+05 7.08000E+06 5.39654E+04-4.66256E+05
 -1       107 7.62633E+04 5.18517E+04 3.82532E+04 6.89439E+06-1.21640E+05-3.65448E+05
 -1       108-4.14103E+05-1.97577E+05-1.52298E+05 8.10843E+06-4.71771E+04-6.97432E+03
 -1       109 2.04208E+06 3.53786E+05 8.58994E+05-6.71564E+06-1.04158E+05 2.00270E+06
 -1       110 2.69112E+06 1.80439E+05 1.13218E+06-7.39149E+06 1.49776E+05 1.30838E+06
 -1       111 1.85267E+05-1.88869E+04 6.37624E+04-7.89497E+06 2.29840E+05-1.24795E+05
 -1       112-4.37712E+06-1.29310E+06-2.16800E+06-5.89809E+06-8.33599E+04-1.68981E+06
 -1       113 4.16954E+05-1.16788E+05 3.99397E+05-4.08402E+06-7.78202E+04-4.33394E+05
 -1       114 7.06104E+05 2.35594E+05 4.95299E+05-5.66664E+06 1.28362E+05-4.33885E+05
 -1       115 7.25802E+05-5.83814E+05 1.06123E+05-1.37354E+06-1.94430E+05-2.54659E+05
 -1       116-7.65970E+05 4.06700E+05-2.25740E+05-1.34963E+06-1.67451E+05 2.13938E+05
 -1       117-7.28580E+05 7.82523E+05-1.31311E+03-2.90909E+06-1.48215E+05-2.81506E+05
 -1       118-3.38341E+05-1.83979E+05 2.41263E+05-3.28258E+06-3.16252E+05 2.21295E+05
 -1       119-5.55132E+05 1.27641E+05-3.16589E+05-3.31709E+06 6.33779E+04 1.33244E+05
 -1       120-1.33293E+06-1.82884E+04-3.47586E+05-4.82604E+06-1.81100E+05-3.58963E+05
 -1       121 1.31335E+06-1.92085E+05 2.36788E+05-6.46631E+06 6.41892E+04 3.18015E+04
 -1       122-1.71697E+06-5.23379E+04-7.92803E+05-7.82291E+06 3.76442E+04-2.95308E+05
 -1       123 6.75623E+05-3.56344E+05 1.86580E+05-4.25137E+06-1.62690E+05 4.07466E+04
 -1       124 4.18445E+04 3.40296E+03-1.27369E+05-7.10511E+06 1.77902E+04-4.13758E+05
 -1       125-4.41655E+05-6.71129E+04-2.47724E+05-7.77558E+06 1.05400E+05 1.81235E+05
 -1       126 9.91951E+05 3.61908E+05 2.29953E+05-6.52431E+06 2.68868E+04-2.80600E+05
 -1       127 3.27401E+06 1.69189E+06 7.14914E+05-1.63013E+06-5.37972E+04-6.08706E+06
 -1       128-1.06292E+06-7.28127E+05-4.14339E+05-9.00052E+05 4.38742E+03-5.19394E+06
 -1       129-7.43252E+05-3.44311E+05 8.36743E+04-4.91597E+05 3.12216E+04-3.88113E+06
 -1       130-7.41395E+05-4.48554E+04 5.75552E+05-2.02541E+05 1.82665E+05-1.37586E+06
 -1       131 3.18332E+05-1.46376E+05 3.89791E+05 1.45774E+05 2.68728E+05-2.90899E+06
 -1       132 7.26426E+05 1.71084E+05-6.25241E+05-2.74040E+05 2.16862E+05-2.51384E+06
 -1       133 4.13561E+05 1.05015E+05-4.94708E+05 3.43819E+05 1.37304E+05-1.41030E+06
 -1       134-4.63858E+06-2.32062E+06-1.33330E+06 2.09064E+06 1.41970E+05-5.75954E+06
 -1       135 6.02978E+05 6.04928E+05 8.37676E+04 7.91570E+05 6.74932E+04-4.49955E+06
 -1       136 5.78707E+05 3.08578E+05 3.38546E+05 6.37426E+05-1.82458E+05-5.99768E+06
 -1       137-2.81635E+06-1.18870E+06-5.04579E+05 6.06099E+05-5.71862E+04-8.09646E+06
 -1       138 1.14828E+06 4.97773E+05 5.09139E+05-6.31635E+05-2.08108E+05-8.20848E+06
 -1       139-4.68902E+05-1.26371E+05 4.82457E+05-1.90806E+04 1.04528E+05-3.93756E+06
 -1       140 9.30520E+05-4.72661E+04-1.37762E+05 7.84155E+05-4.66545E+04-3.13901E+06
 -1       141 1.56007E+06 3.83061E+05 3.96107E+04-5.83300E+05-2.47626E+05-7.69778E+06
 -1       142-7.37677E+05-1.88749E+05-2.49321E+05-8.37323E+04-1.28787E+05-7.70753E+06
 -1       143 4.65962E+05 6.16995E+04-1.81280E+05 2.45893E+04-4.13505E+04-6.33071E+06
 -1       144-1.54748E+05-1.05001E+05 1.78291E+05-2.01330E+05 5.64885E+04-5.99837E+06
 -1       145-2.63262E+06 7.27916E+04-3.51745E+05-1.48945E+06-8.56776E+04 6.66555E+06
 -1       146-2.84071E+05 2.60609E+04 7.58836E+04-1.43149E+06-3.35010E+04 5.46150E+06
 -1       147 1.28686E+06 3.79470E+05 1.15545E+05-6.92380E+05 1.65426E+05 4.85237E+06
 -1       148 3.98272E+05 4.14592E+04-6.13685E+05 2.00420E+05 6.69836E+04 1.50106E+06
 -1       149 5.41524E+04-2.09956E+04 5.06026E+05-1.63427E+05 3.15591E+05 2.87132E+06
 -1       150 2.74398E+05 1.26433E+05-4.74181E+05 5.30533E+05 2.28540E+05 3.02125E+06
 -1       151-6.85017E+05-1.46028E+05 5.66622E+05 3.03850E+05 1.99414E+05 1.29085E+06
 -1       152 3.96764E+06 6.46476E+05 6.37147E+05 1.46349E+06-2.20832E+05 5.86710E+06
 -1       153-5.55691E+05-5.92701E+05-5.24128E+05 7.93056E+05-2.78222E+05 6.01999E+06
 -1       154-2.94907E+05-4.04728E+05 1.95744E+05 8.20378E+05 2.66494E+04 4.81932E+06
 -1       155 2.52910E+06 7.19296E+05 4.50020E+05 8.75689E+05-2.31321E+05 7.87767E+06
 -1       156-1.37159E+06-5.97721E+05-5.03526E+05-4.01295E+05-2.18701E+05 8.18647E+06
 -1       157 1.16491E+06 1.22327E+05-2.53115E+05 2.86530E+05 7.76605E+04 3.82976E+06
 -1       158-9.03914E+05-1.61906E+05 2.14247E+05 4.86260E+05 5.54544E+04 3.94044E+06
 -1       159-2.92853E+06-6.09128E+05-2.36442E+05-1.57656E+06-1.12536E+05 7.19265E+06
 -1       160 6.11006E+04-2.45964E+04 1.62652E+05-4.20355E+05-2.63008E+05 8.06763E+06
 -1       161 6.53047E+05 6.52961E+04 5.63015E+04 8.19988E+04 1.33494E+05 6.36954E+06
 -1       162-4.50754E+05-2.30927E+04-1.73444E+05 1.22806E+05 3.73680E+04 6.73585E+06
 -1       163 2.50211E+05 9.47624E+05-8.50198E+05 1.55414E+05-7.40451E+04 1.98131E+05
 -1       164 2.72514E+05 2.79613E+05-5.31859E+05 3.53178E+05 2.73773E+05 2.13507E+05
 -1       165-2.42420E+05-8.67262E+04 3.90081E+04-2.28357E+05 2.37204E+05 2.63343E+05
 -1       166-3.06354E+04-1.05193E+06 9.30858E+05 6.14326E+03 1.52116E+04 4.74950E+04
 -1       167 4.25764E+04-9.88012E+05 2.99498E+05 4.59964E+05-3.02950E+05-1.50358E+05
 -1       168-6.84911E+04 5.03483E+05-9.10867E+04 5.81168E+05-3.39192E+05 8.25643E+04
 -1       169-3.16578E+04 8.86520E+05-9.82457E+05 1.18350E+05 1.63463E+05 2.77633E+05
 -1       170 4.35283E+04-9.80343E+05 1.00071E+06-7.82942E+04 4.48396E+04-9.63824E+04
 -1       171-4.54047E+04 2.79575E+05-8.05184E+05-2.66270E+05 3.17135E+05-6.12235E+04
 -1       172-1.79093E+05 7.92819E+04 3.35583E+05 5.03915E+04 3.83560E+05-3.43531E+05
 -1       173 8.18332E+04-5.64749E+05 3.94889E+05-3.62295E+05-5.92679E+04 1.84126E+05
 -1       174 1.68394E+05 4.09557E+04-2.28046E+05-2.18327E+05-2.87694E+05 8.59906E+04
 -1       175-1.92958E+05 7.75646E+05-5.13153E+05 1.10258E+05-1.88755E+05-2.04066E+05
 -1       176-2.84555E+04-4.98635E+05 8.71568E+05-2.66541E+05-2.16561E+04 4.45298E+05
 -1       177 1.96008E+04-1.28448E+05 1.19563E+05-1.98647E+05 9.01392E+03 4.29963E+04
 -1       178-2.05407E+04 8.09884E+05-4.84800E+05 2.84252E+05-1.73270E+05 2.71116E+05
 -1       179 8.59279E+04-1.46958E+05 1.07750E+05-1.94554E+05-6.48675E+04-2.46662E+05
 -1       180-4.10842E+04-9.51540E+04 1.53176E+05-4.50429E+04 1.69426E+05 7.96795E+04
 -1       181 2.96389E+05 1.27030E+05 1.27024E+05-4.38873E+06-4.28515E-01 4.30218E+06
 -1       182 1.04513E+06 4.47926E+05 4.47920E+05 2.27807E+05 1.02534E+00 4.80802E+06
 -1       183-2.30054E+06-8.31614E+05-5.45007E+05-1.97477E+06-8.59047E+04 4.62286E+06
 -1       184-3.19300E+06-1.36844E+06-1.36843E+06 4.67791E+06-1.12455E+00 4.03683E+06
 -1       185-2.42069E+06-1.03745E+06-1.03744E+06 5.25886E+06-1.71898E+00 2.02040E+06
 -1       186 7.02931E+05 1.43940E+05 1.53855E+05 5.37890E+06 8.34064E+04 2.24446E+04
 -1       187-7.21483E+05-3.72222E+05 3.63694E+04 4.46408E+06 6.40027E+04-4.32471E+06
 -1       188-8.40844E+05-5.23663E+04-5.03394E+05-4.57400E+06-6.38747E+04-4.35608E+06
 -1       189 1.78332E+06 6.84357E+05 3.79598E+05-1.21543E+06-5.85039E+04-5.00956E+06
 -1       190-1.82727E+06-7.83119E+05-7.83119E+05 1.12845E+06-1.71369E-01-5.01751E+06
 -1       191-1.38730E+06-4.51485E+05-5.49364E+05-3.62113E+06-1.86331E+04-2.20590E+06
 -1       192 2.15386E+06 9.23085E+05 9.23081E+05-4.49939E+06-1.23741E+00 1.93416E+06
 -1       193 2.05913E+06 7.78116E+05 4.32418E+05 2.57147E+06-3.73243E+04 4.54802E+06
 -1       194 5.53126E+05 5.53025E+04 1.79543E+05 3.67526E+06-3.12829E+04-2.32220E+06
 -1       195-5.71242E+05-2.44814E+05-2.44817E+05-4.79541E+06-1.20175E+00-1.05648E+04
 -1       196-5.99173E+05-2.42139E+05-2.20572E+05-9.17405E+05-8.88472E+03-1.32791E+05
 -1       197-4.76724E+05-1.64917E+05-1.93693E+05 7.77900E+05-2.80200E+04 2.17745E+06
 -1       198 4.43086E+04 1.89850E+04 1.89931E+04 1.78802E+06 2.00044E+00-1.44186E+05
 -1       199-1.04217E+05-1.05866E+05 1.47795E+05 1.71458E+06 5.90227E+04 7.80560E+05
 -1       200 2.31146E+05-6.24298E+05 4.81288E+04 1.37221E+06-1.02267E+05 2.72999E+04
 -1       201-1.34513E+05-2.70641E+05-4.27021E+04 3.63504E+06-1.53078E+05 1.09972E+05
 -1       202-8.69761E+04-1.86909E+05 5.71682E+05 4.49240E+05 7.36097E+04 6.00545E+05
 -1       203-2.95658E+04-3.83371E+05 1.95404E+05 7.08889E+05-2.66046E+05 1.18283E+05
 -1       204-2.23096E+05 3.21966E+05-2.39367E+05-1.86085E+06-2.35943E+03 1.41757E+05
 -1       205 4.15563E+04 4.36741E+05-4.29541E+05-1.59938E+06 7.52931E+04 5.16248E+05
 -1       206-2.13309E+05-1.84251E+05 5.33213E+05-1.25927E+05 1.58116E+05-1.13700E+06
 -1       207 1.31409E+05-5.77856E+05 1.65107E+05-9.50960E+05-9.38731E+04-2.95562E+05
 -1       208-6.87754E+04 6.15301E+04 7.68443E+04-2.44412E+05 1.61592E+05-5.53296E+05
 -1       209 2.80040E+04-3.19392E+04 9.91055E+04 1.28424E+06-8.36816E+04 1.50362E+05
 -1       210-1.63441E+05 3.91039E+04-2.94239E+05 2.91440E+05-1.35223E+05-4.19466E+05
 -1       211 1.41456E+05 1.72212E+05-1.09320E+05 1.11285E+06 4.72950E+03-2.96241E+06
 -1       212 2.68040E+05 7.16595E+03 1.45977E+05-2.40550E+05 6.35712E+04-7.07383E+05
 -1       213 3.73909E+04 3.79138E+04 2.43171E+05 7.80496E+05 7.30495E+04-3.35813E+06
 -1       214 1.67608E+05 2.82796E+04-2.62038E+04-2.73847E+05 6.65516E+03-4.17662E+06
 -1       215-3.46290E+05-6.22030E+04-2.52776E+05-1.36234E+05-5.44278E+03 5.78671E+05
 -1       216-1.27800E+05 3.61807E+04-1.05730E+05 8.63471E+05 2.55129E+04 3.57655E+06
 -1       217 3.06566E+05 1.61518E+05 7.74985E+04 8.05803E+04-3.08802E+04 7.67805E+05
 -1       218 1.09559E+05 1.26841E+04 2.13549E+05 1.02493E+06-4.33183E+04 3.25433E+06
 -1       219-5.81378E+04 1.15962E+05-1.53927E+05-1.79491E+05-4.02767E+02 4.38205E+06
 -1       220-6.11046E+05-1.74804E+05-1.13545E+05-1.07387E+06-8.11475E+04 1.47623E+05
 -1       221 5.66019E+04-7.65913E+04 4.11435E+04-3.23711E+05-2.95286E+04-3.04823E+06
 -1       222 6.14026E+03-1.28551E+05 3.18380E+05-7.03582E+05 3.12572E+04-3.62479E+06
 -1       223 1.01224E+06 5.69110E+05-4.31378E+04-3.82573E+06-2.04305E+04-3.91189E+06
 -1       224-2.40236E+05-2.26531E+05 2.66373E+05-3.17754E+06-3.22735E+04-2.99441E+06
 -1       225 1.90640E+05-2.21604E+05 1.37128E+05-3.52179E+06 1.25911E+05-7.98784E+05
 -1       226-3.70626E+04 6.67394E+04 4.91315E+04-1.02869E+06 1.25907E+04-1.32012E+06
 -1       227 7.15420E+05-2.15591E+05 3.98141E+05-4.18844E+06 1.42445E+05 3.55886E+06
 -1       228 9.52830E+04-1.30803E+04 5.85165E+03-2.86457E+06-9.46461E+02-6.12713E+05
 -1       229 1.92900E+05 1.42897E+05 8.94424E+03-3.83557E+06-3.35192E+04 2.08079E+05
 -1       230-6.15246E+05 1.41655E+05-6.52256E+04-2.90650E+06-2.90501E+04 6.88661E+05
 -1       231-3.17610E+04 1.21308E+05 4.25923E+04-4.13804E+06 1.21998E+05 1.26158E+06
 -1       232 9.86474E+04-2.35681E+05 1.60374E+05-4.74670E+05 9.25389E+04-2.74728E+06
 -1       233-3.40058E+05 1.37747E+05-1.75222E+05-3.01034E+06-9.27438E+04 2.99352E+06
 -1       234-1.80330E+05 1.65702E+05-4.28696E+05-1.73324E+06-9.38506E+04 2.32715E+06
 -1       235 1.11531E+05 2.31470E+04 3.89082E+04-1.23927E+06-4.83324E+04 3.85033E+06
 -1       236 1.34586E+05 1.03660E+05-5.36614E+04-5.01879E+05 9.05029E+04 3.03595E+06
 -1       237 2.01274E+05 1.04562E+05-4.07928E+04-3.37700E+05-6.62990E+04-3.86504E+05
 -1       238-2.05061E+05-3.05419E+05 2.39990E+05-2.90525E+06 4.69654E+03-2.70252E+05
 -1       239-1.52887E+05-6.18148E+04 3.71346E+05-1.63547E+06-1.15538E+05 4.35305E+06
 -1       240-7.90480E+04-1.36575E+05-2.15310E+05-2.93884E+05-2.26473E+05 4.97986E+06
 -1       241 3.34022E+05 4.95006E+05-4.80464E+05 3.93725E+05-8.96276E+04-1.39956E+06
 -1       242 1.03927E+05 1.40283E+05-2.06576E+05-6.59027E+04 1.86810E+05-1.85454E+06
 -1       243 3.37346E+04 5.40751E+04-1.37519E+05 7.27202E+05 7.76323E+04-1.80341E+06
 -1       244-2.43089E+05 3.50655E+05-2.46584E+05 1.32172E+06-1.39624E+05 2.74168E+05
 -1       245-9.06240E+04 4.49689E+04 1.99788E+04 5.71286E+05-5.20885E+03-8.72579E+04
 -1       246-3.63906E+05 6.73713E+05 1.63158E+03 5.42495E+06 2.02236E+05 1.17472E+06
 -1       247-5.61739E+05 6.51300E+04-1.13371E+05 4.11411E+06 1.78231E+05 5.40573E+05
 -1       248 2.38620E+05 1.99653E+05 1.43818E+04 2.02216E+06 6.22724E+04 1.17948E+06
 -1       249 7.54912E+05-1.15347E+05 1.29732E+05 4.02908E+06 1.73455E+05-8.73687E+05
 -1       250 1.44907E+06 1.01390E+06 2.26508E+05 4.56565E+06-4.20153E+04 3.53268E+06
 -1       251-1.20412E+05-2.29877E+04-1.15379E+05 4.66738E+05 9.71639E+03 1.00322E+05
 -1       252-5.03236E+04 1.58278E+05-1.24413E+05-5.96047E+05 2.08564E+04 7.53574E+05
 -1       253-1.13054E+05-2.85853E+04 1.18360E+05-6.05684E+05-1.12238E+05 3.26202E+06
 -1       254 1.33564E+05-9.54376E+04 4.86640E+04-3.31763E+06 9.82109E+04 7.57461E+05
 -1       255-4.10097E+05 2.47092E+05-2.39689E+05 3.02832E+06-3.77769E+04-3.32420E+06
 -1       256 2.12015E+05-2.65916E+05 1.56994E+05 2.68706E+06 6.87804E+03 3.03891E+06
 -1       257 4.14485E+04-1.21864E+05 1.37320E+04 5.56088E+05-3.16980E+04-1.16010E+06
 -1       258 1.92125E+05 5.73722E+04 1.64189E+05-5.44535E+05-6.78206E+04 9.41694E+05
 -1       259 4.61381E+05 2.43951E+05-1.68883E+05 1.88968E+06-1.28683E+05 4.64246E+06
 -1       260 6.41376E+05-1.42753E+05 4.75164E+05 3.91507E+06 4.05605E+02-4.02595E+06
 -1       261-4.54827E+05-1.79726E+05-2.33066E+05 3.55507E+06-1.73930E+04-3.46738E+05
 -1       262-4.22784E+05 3.49017E+05-6.71941E+04 3.74064E+06-2.74427E+04 3.54182E+06
 -1       263 1.20364E+05-9.12157E+04 3.13481E+05 4.38871E+05 6.65328E+04 2.29937E+06
 -1       264 1.68667E+05 1.21695E+05-1.49345E+05-9.34240E+04 1.31243E+05 1.89560E+06
 -1       265-3.64752E+03 2.53729E+05-1.37079E+05-3.12143E+06 1.68192E+04-1.85301E+06
 -1       266 4.34575E+05-1.40259E+05 1.01961E+05-3.56309E+06 1.63909E+05-4.16188E+05
 -1       267-1.20210E+05-1.38012E+05-1.36857E+05-4.64322E+05-7.88400E+04-4.74019E+06
 -1       268-3.08931E+05-8.61829E+04 1.99627E+05 5.61313E+05-1.13683E+05-5.15741E+06
 -1       269-1.36676E+05 2.28411E+05 1.24546E+04 1.95651E+06 3.50214E+04-4.56418E+05
 -1       270 1.14980E+06-8.73390E+04 4.95490E+05-4.50449E+06 1.91162E+05 1.78133E+06
 -1       271 1.08447E+05-8.73220E+04 1.86954E+05 3.15479E+06-2.07510E+04 2.57481E+05
 -1       272-1.22902E+06-1.30887E+06-3.92948E+05-4.73409E+06-5.32849E+04 3.54670E+06
 -1       273 1.00619E+05 2.15518E+05 4.63999E+03 4.10096E+06 1.76023E+04-1.78247E+05
 -3
    1PSTEP                         9           1           1          
    1PGM                1.000000E+00                                  
    1PGK                2.157313E+11                                  
    1PHID                         -1                                  
    1PSUBC                         0                                  
    1PMODE                         3                                  
  100CL  103 7.39225E+04         273                     2    3MODAL      1
 -4  TOSTRAIN    6    1
 -5  EXX         1    4    1    1
 -5  EYY         1    4    2    2
 -5  EZZ         1    4    3    3
 -5  EXY         1    4    1    2
 -5  EYZ         1    4    2    3
 -5  EZX         1    4    3    1
 -1         1-8.72099E-02-2.54519E+00 2.48435E+00 1.71265E+00-4.42799E-02 1.51601E+00
 -1         2-1.62538E-01 2.01243E+00-2.10849E+00-1.17460E+00 1.23389E-01 1.46927E+00
 -1         3 1.65490E-01 2.55495E+00-2.22038E+00 1.86173E+00-2.03481E-01-1.26316E+00
 -1         4 8.20087E-02-2.48020E+00 2.13226E+00-1.65543E+00-9.63411E-02-1.33871E+00
 -1         5-1.29706E+00-1.85933E-05 1.79725E-05-3.91824E+01 7.14718E-07-3.89847E+01
 -1         6 9.33574E-01 1.80273E-05-1.73150E-05 3.88248E+01-1.59900E-06-3.89384E+01
 -1         7 1.66515E+00 5.69385E+00-5.53394E-01-2.78732E+01-1.95794E+00 3.41097E+01
 -1         8-1.85919E+01-9.11859E-01 8.95301E-06 3.66239E+01 1.35527E-01 4.06495E+01
 -1         9-2.23367E+01-2.65843E-05-5.84435E-06 4.71921E+01-1.11734E-05 1.46137E+01
 -1        10 1.38893E+01-3.36596E+00-1.84111E-01 5.12921E+01 8.22336E-01-7.99137E+00
 -1        11 1.26251E+00-2.34371E+00 1.73113E+00 2.12394E+01-6.96187E-01-2.06046E+01
 -1        12-1.17571E+00 7.03009E-01 5.51820E-01 1.13614E+01-3.70798E-01-9.37793E+00
 -1        13 4.01295E+00-6.80975E+00 1.96442E+00 6.81178E+00-9.27338E-01-2.92943E+00
 -1        14-2.65788E+00 6.30330E+00-3.31934E+00 6.89563E+00-1.20459E+00 4.52025E+00
 -1        15 1.33534E+00-6.14179E-01-3.22870E+00 1.95571E+01-2.54121E+00 2.11004E+01
 -1        16-1.21145E+00-5.90889E-02 1.40455E+00 1.02896E+01 3.90172E-01 1.05525E+01
 -1        17 1.70299E+01 2.64620E-05-7.41143E-06-4.63828E+01-5.33067E-06 1.28582E+01
 -1        18-1.73613E+01 2.21901E+00-4.78061E-01-5.11243E+01-4.06605E-01-8.64971E+00
 -1        19 1.38991E+00 1.74643E+00-2.25848E+00-2.12252E+01 4.44056E-01-1.96538E+01
 -1        20-7.09650E-01 2.25913E-01 2.57462E-01-8.65016E+00-8.56831E-02-8.98715E+00
 -1        21-4.64953E+00 7.82972E+00-3.21813E+00-6.62287E+00-2.20754E+00-4.61495E+00
 -1        22 3.28374E+00-6.14050E+00 2.48240E+00-7.70304E+00-2.21147E+00 2.98861E+00
 -1        23-1.93892E+00 6.52813E-01 6.43262E-01-2.19582E+01-4.20769E-01 1.22897E+01
 -1        24 2.23633E+00-7.28808E-01-1.60282E+00-8.05149E+00 4.59480E-01 1.02308E+01
 -1        25-3.37735E+00-2.41165E+00 6.33668E+00 3.34449E+00 2.12499E+00-7.47994E+00
 -1        26 4.07427E+00 3.39619E+00-7.69159E+00-3.97128E+00 2.52067E+00-5.53151E+00
 -1        27 1.79622E+01 1.01303E+00-3.82265E+00-9.02213E+00-8.97727E-01-5.20877E+01
 -1        28-2.74004E+01-5.55482E-01 2.22273E+00 9.30478E+00 7.52121E-01-5.01063E+01
 -1        29 4.44155E+00 2.25873E+00-6.43417E+00 6.64583E+00 1.56484E+00 7.81777E+00
 -1        30-3.23891E+00-2.87280E+00 6.69234E+00-3.49022E+00 2.01191E+00 6.09988E+00
 -1        31-1.80137E+01 1.33685E+00 1.76122E+00-1.34056E+01-1.13596E+00 4.61088E+01
 -1        32 2.24611E+01-1.91842E+00-2.46532E+00 8.81724E+00-6.66185E-01 4.81909E+01
 -1        33-8.66995E+00 5.69865E+00 1.29015E-01 5.25620E+01 1.59002E+00 3.06688E-02
 -1        34-3.12358E+00 1.72867E+00-9.11512E-01 4.49726E+01-2.39196E-01-7.39722E-01
 -1        35 3.61139E+00-2.15277E+00 8.37981E-01 3.78245E+01-4.83597E-01-3.57520E+00
 -1        36 6.85095E+00-4.62415E+00 5.76125E-01-5.09231E+01 1.75096E+00 4.42769E+00
 -1        37 9.10590E-01 3.19998E-02 1.02114E-01-4.46742E+01 4.96869E-01-1.08453E+00
 -1        38-4.24547E+00 2.64428E+00 3.28517E-01-3.28518E+01-5.35863E-01-2.30967E+00
 -1        39-2.25804E+00-1.23177E+00 1.79921E+00-2.22333E+00-5.53804E-01-4.29397E+01
 -1        40 3.86299E+00-1.60533E+00-1.34323E+00-8.10500E-01 4.98806E-01-2.87759E+01
 -1        41-1.45071E+00 7.20693E-01 6.56514E-01 8.51499E-01-6.08802E-01-4.92888E+01
 -1        42-7.66895E-01-3.95609E-01 1.55917E+00-5.37561E+00-2.29523E-01 4.75617E+01
 -1        43 1.16146E+00-9.24897E-02-5.33219E-01 1.10337E+00 7.88060E-01 3.25440E+01
 -1        44 9.37565E-01-1.05161E-01-5.95830E-01 2.22065E+00-1.10199E+00 4.97495E+01
 -1        45 1.86598E-01 1.77372E+00-2.05184E+00 6.98509E-01 5.35669E-01-6.06719E-01
 -1        46 2.34615E-01-3.24465E+00 2.59463E+00-1.97390E-01-2.17752E+00-9.40511E-02
 -1        47-7.02842E-01 1.12280E+00-4.66203E-01-4.67119E-01 1.34551E+00-5.42227E-02
 -1        48-9.98294E-01-4.34238E-01 8.43645E-01-1.15482E+01-3.81282E-01 1.29885E+01
 -1        49 1.57115E+00 5.58413E-01-9.94367E-01 2.11676E+01 2.00059E-01 1.36131E+01
 -1        50 5.34165E-01-4.41180E-01-2.23054E-01 1.43864E+00-2.18270E-01-1.68620E+01
 -1        51-1.16642E-01-9.57218E-01 7.31657E-01-5.28256E+00 2.60458E-01-7.04760E+00
 -1        52-2.73511E-02-1.42189E-01 6.87640E-02 1.01748E+01-5.87087E-01 1.34537E+00
 -1        53-1.65260E+00 1.39371E+00-3.78405E-01-6.75589E+00-3.06613E-02 8.76991E+00
 -1        54 1.23887E-01-2.03393E-01 1.31868E-01 4.50551E+00 2.86295E-01 3.77311E-01
 -1        55-2.52052E+01-3.37659E-05-6.25514E-06 4.34159E+01-1.39024E-05 2.77205E+01
 -1        56-7.26687E+00-1.94026E-05-5.43355E-06 4.93686E+01-8.44437E-06 3.78760E-01
 -1        57 2.82204E+01 1.80273E-05-1.73150E-05 4.05616E+01-1.59900E-06-2.53225E+01
 -1        58 5.73202E-01-3.29232E+00 3.16224E+00 3.18656E+01 2.92025E-01-3.04474E+01
 -1        59 3.22884E-03 1.01964E-02-4.41723E-01 1.46243E+01-9.00068E-01-1.47469E+01
 -1        60-1.06782E+00-1.34696E-01 1.22307E+00 4.26142E+00 4.52498E-01-4.59666E+00
 -1        61 3.55787E+00-5.81954E+00 2.29721E+00 2.61536E+00-6.35491E-01-3.82181E+00
 -1        62 7.90160E-02 1.35427E+00 6.88577E-02 8.55435E+00-2.27890E-01-7.90509E-01
 -1        63-3.04091E+00 4.61557E+00-3.09584E+00 2.59815E+00-3.27134E-01 5.82031E+00
 -1        64 8.07379E-01-1.66526E+00-3.42506E+00 2.55717E+01-1.32573E+00 3.21760E+01
 -1        65 5.26461E-01-5.86539E-01-2.14283E-01 1.51744E+01-1.57767E+00 1.60381E+01
 -1        66-1.35937E+00 1.01060E+00 1.33900E-01 4.02533E+00-9.72193E-03 3.97891E+00
 -1        67 2.70503E+01 3.83354E-05-1.03744E-05-4.20017E+01 9.43273E-08 2.68179E+01
 -1        68 6.90809E+00 1.76919E-05-5.59517E-06-4.83069E+01-1.04213E-05 2.17463E-01
 -1        69-2.82286E+01-1.85933E-05 1.79725E-05-4.10205E+01 7.14718E-07-2.50301E+01
 -1        70-1.24967E-01 3.39570E+00-3.28232E+00-3.17370E+01-1.30529E-01-3.06224E+01
 -1        71 8.01453E-01-6.39380E-01-7.74614E-02-1.52211E+01 7.72293E-01-1.37616E+01
 -1        72-1.70172E-01 1.88251E-01-2.91046E-01-3.69178E+00-9.50016E-02-4.08707E+00
 -1        73-4.23669E+00 6.70042E+00-2.75873E+00-3.29801E+00-5.85533E-01-3.59425E+00
 -1        74-3.39667E-02-7.27963E-01-4.18578E-01-6.45561E+00-3.23947E+00-2.53783E+00
 -1        75 3.73800E+00-5.81577E+00 2.92930E+00-3.27843E+00-8.36196E-01 4.71320E+00
 -1        76 9.19918E-01 3.14586E+00-5.88604E-01-2.54782E+01-2.32103E+00 1.69514E+01
 -1        77-2.38336E+00 3.72152E-01-1.86523E-01-1.52318E+01 3.27263E-01 9.46154E+00
 -1        78 1.26778E+00-7.08805E-01-3.74234E-01-4.03091E+00-9.06848E-01 3.41137E+00
 -1        79-3.64921E+00-2.90195E+00 5.90237E+00 4.58438E+00 9.67875E-01-3.20700E+00
 -1        80-2.78275E-01 1.53125E-01 4.71207E-01-1.58704E+00 2.77706E+00-6.03266E+00
 -1        81 3.50392E+00 2.88001E+00-6.40479E+00-3.18267E+00 6.93659E-01-3.03987E+00
 -1        82 2.55382E+01-1.85933E-05 1.79725E-05-2.65007E+01 7.14718E-07-4.06158E+01
 -1        83-2.44367E+00-7.52234E-05-1.59540E-05-1.20283E+00 2.15184E-06-4.83241E+01
 -1        84-2.75190E+01 1.80273E-05-1.73150E-05 2.57080E+01-1.59900E-06-4.05098E+01
 -1        85 3.80849E+00 2.92835E+00-4.83225E+00 6.02113E+00 9.67749E-01 3.69273E+00
 -1        86 7.44247E-02 2.37952E-01-5.29213E-01 1.18646E+00 2.67685E+00 7.37826E+00
 -1        87-2.74930E+00-3.40298E+00 5.56446E+00-4.54543E+00 9.54238E-01 2.75470E+00
 -1        88-8.45084E+00 4.48846E+00-2.31641E-05-1.96374E+01-7.30862E-01 4.28833E+01
 -1        89 2.87698E+00 5.41303E-05 1.00003E-05-3.95813E-01 6.89204E-06 4.81364E+01
 -1        90 9.58724E+00-2.27359E+00 1.65571E-05 2.04550E+01-1.40556E-01 4.18221E+01
 -1        91-1.59563E+01 4.26001E+00-4.93395E-01 4.39151E+01 1.10892E+00 1.99780E+01
 -1        92-7.38309E+00 3.25264E+00-2.58289E+00 3.94774E+01-8.20255E-01 6.49968E+00
 -1        93-1.54366E+01 4.85509E+00 1.06735E+00 4.97094E+01 2.04060E+00 7.97839E+00
 -1        94 1.65076E-01 7.18250E-01 3.07744E-01 5.32346E+01 1.85064E+00-3.94943E+00
 -1        95 1.48239E+01-3.64063E+00 1.65958E+00 3.99642E+01 1.56032E-01-9.72830E+00
 -1        96-4.67499E+00 1.50068E+00-1.07900E+00 3.48125E+01-9.80191E-01-4.54356E+00
 -1        97-5.28207E+00 2.51942E+00 5.24161E-02 2.70673E+01-6.29223E-01-2.54121E+00
 -1        98-3.61173E+00 3.18307E+00-6.10027E-01 8.56527E+00-9.37240E-01-6.38303E-01
 -1        99 3.17095E+00-3.14587E+00 9.76040E-02 8.26907E+00-7.10367E-01 1.76215E+00
 -1       100 9.90234E-01 3.14279E-01-5.19975E-01 2.33424E+01-1.86909E+00-2.13111E-02
 -1       101 4.31354E+00-3.35790E+00 2.20641E-02 2.14381E+01-9.18656E-01-8.63543E-01
 -1       102 3.87588E+00-1.69361E+00 1.20580E+00 2.27431E+01 3.10814E-01 1.05959E+00
 -1       103 6.37738E+00-1.88604E+00-1.38315E-01 3.01788E+01-6.56937E-01 1.75023E+00
 -1       104 8.08023E+00-3.04036E+00-1.28088E+00 5.16245E+01 5.76918E-01-1.44337E+00
 -1       105-3.04741E+00 1.92472E+00 4.13677E-01 2.66801E+01-2.31090E-01-1.49921E+00
 -1       106 1.39720E+00-1.54685E-01 6.94127E-01 4.60200E+01 3.50775E-01-3.03066E+00
 -1       107 2.46159E-01 8.74835E-02-9.06351E-04 4.48136E+01-7.90657E-01-2.37541E+00
 -1       108-1.54570E+00-1.38285E-01 1.56031E-01 5.27048E+01-3.06651E-01-4.53331E-02
 -1       109 8.39125E+00-2.58269E+00 7.01165E-01-4.36516E+01-6.77027E-01 1.30175E+01
 -1       110 1.14867E+01-4.83275E+00 1.35355E+00-4.80447E+01 9.73541E-01 8.50447E+00
 -1       111 8.59023E-01-4.67979E-01 6.92416E-02-5.13173E+01 1.49396E+00-8.11165E-01
 -1       112-1.66939E+01 3.35219E+00-2.33467E+00-3.83376E+01-5.41840E-01-1.09838E+01
 -1       113 1.66085E+00-1.80846E+00 1.54674E+00-2.65461E+01-5.05831E-01-2.81706E+00
 -1       114 2.43418E+00-6.24134E-01 1.06395E+00-3.68332E+01 8.34356E-01-2.82025E+00
 -1       115 4.34555E+00-4.16696E+00 3.17635E-01-8.92801E+00-1.26380E+00-1.65528E+00
 -1       116-4.10129E+00 3.52106E+00-5.89795E-01-8.77262E+00-1.08843E+00 1.39060E+00
 -1       117-4.81471E+00 5.00746E+00-8.74810E-02-1.89091E+01-9.63398E-01-1.82979E+00
 -1       118-1.77763E+00-7.74276E-01 1.98979E+00-2.13368E+01-2.05564E+00 1.43842E+00
 -1       119-2.49224E+00 1.94579E+00-9.41708E-01-2.15611E+01 4.11957E-01 8.66089E-01
 -1       120-6.11586E+00 2.42934E+00 2.88903E-01-3.13692E+01-1.17715E+00-2.33326E+00
 -1       121 6.49972E+00-3.28564E+00-4.97964E-01-4.20310E+01 4.17230E-01 2.06710E-01
 -1       122-7.31716E+00 3.50297E+00-1.31005E+00-5.08489E+01 2.44688E-01-1.91950E+00
 -1       123 3.63276E+00-3.07502E+00 4.53983E-01-2.76339E+01-1.05748E+00 2.64853E-01
 -1       124 3.95172E-01 1.45302E-01-7.04718E-01-4.61832E+01 1.15637E-01-2.68942E+00
 -1       125-1.73602E+00 6.98505E-01-4.75468E-01-5.05413E+01 6.85097E-01 1.17803E+00
 -1       126 4.07196E+00-2.33168E-02-8.81021E-01-4.24080E+01 1.74764E-01-1.82390E+00
 -1       127 1.27598E+01 2.47608E+00-3.87428E+00-1.05958E+01-3.49682E-01-3.95659E+01
 -1       128-3.60089E+00-1.42475E+00 6.14870E-01-5.85034E+00 2.85182E-02-3.37606E+01
 -1       129-3.32530E+00-7.32187E-01 2.04972E+00-3.19538E+00 2.02941E-01-2.52273E+01
 -1       130-4.50302E+00 2.44883E-02 4.05714E+00-1.31651E+00 1.18732E+00-8.94310E+00
 -1       131 1.22654E+00-1.79407E+00 1.69102E+00 9.47534E-01 1.74673E+00-1.89084E+01
 -1       132 4.31337E+00 7.03644E-01-4.47247E+00-1.78126E+00 1.40961E+00-1.63399E+01
 -1       133 2.65234E+00 6.46798E-01-3.25141E+00 2.23482E+00 8.92475E-01-9.16692E+00
 -1       134-1.77120E+01-2.64530E+00 3.77233E+00 1.35892E+01 9.22807E-01-3.74370E+01
 -1       135 1.98185E+00 1.99452E+00-1.39302E+00 5.14521E+00 4.38706E-01-2.92471E+01
 -1       136 1.92285E+00 1.67012E-01 3.61803E-01 4.14327E+00-1.18597E+00-3.89849E+01
 -1       137-1.15418E+01-9.62097E-01 3.48468E+00 3.93965E+00-3.71710E-01-5.26270E+01
 -1       138 4.23101E+00 2.74256E-03 7.66194E-02-4.10563E+00-1.35270E+00-5.33551E+01
 -1       139-2.87864E+00-6.52187E-01 3.30520E+00-1.24024E-01 6.79432E-01-2.55941E+01
 -1       140 4.93014E+00-1.42547E+00-2.01369E+00 5.09701E+00-3.03254E-01-2.04036E+01
 -1       141 7.16635E+00-4.84218E-01-2.71665E+00-3.79145E+00-1.60957E+00-5.00356E+01
 -1       142-3.03128E+00 5.36754E-01 1.43031E-01-5.44260E-01-8.37114E-01-5.00989E+01
 -1       143 2.50918E+00-1.18526E-01-1.69789E+00 1.59830E-01-2.68778E-01-4.11496E+01
 -1       144-8.83675E-01-5.60318E-01 1.28108E+00-1.30865E+00 3.67175E-01-3.89894E+01
 -1       145-1.27447E+01 4.84050E+00 2.08101E+00-9.68145E+00-5.56904E-01 4.33261E+01
 -1       146-1.57327E+00 4.42586E-01 7.66433E-01-9.30467E+00-2.17757E-01 3.54997E+01
 -1       147 5.69179E+00-2.06264E-01-1.92177E+00-4.50047E+00 1.07527E+00 3.15404E+01
 -1       148 2.84970E+00 5.30416E-01-3.72802E+00 1.30273E+00 4.35393E-01 9.75689E+00
 -1       149-4.56783E-01-9.45245E-01 2.48039E+00-1.06227E+00 2.05134E+00 1.86636E+01
 -1       150 1.89361E+00 9.31839E-01-2.97215E+00 3.44847E+00 1.48551E+00 1.96381E+01
 -1       151-4.05597E+00-5.52549E-01 4.07968E+00 1.97502E+00 1.29619E+00 8.39054E+00
 -1       152 1.79128E+01-3.67480E+00-3.73543E+00 9.51271E+00-1.43541E+00 3.81362E+01
 -1       153-1.10321E+00-1.34378E+00-8.98050E-01 5.15487E+00-1.80845E+00 3.91299E+01
 -1       154-1.16106E+00-1.87489E+00 2.02817E+00 5.33245E+00 1.73221E-01 3.13256E+01
 -1       155 1.08915E+01-8.72205E-01-2.62250E+00 5.69198E+00-1.50358E+00 5.12048E+01
 -1       156-5.20609E+00-1.75926E-01 4.36339E-01-2.60842E+00-1.42156E+00 5.32121E+01
 -1       157 6.02072E+00-7.56053E-01-3.19643E+00 1.86245E+00 5.04793E-01 2.48934E+01
 -1       158-4.59808E+00 2.24972E-01 2.66997E+00 3.16069E+00 3.60454E-01 2.56129E+01
 -1       159-1.33743E+01 1.70182E+00 4.12428E+00-1.02477E+01-7.31487E-01 4.67522E+01
 -1       160 9.84203E-02-4.58610E-01 7.58502E-01-2.73231E+00-1.70955E+00 5.24396E+01
 -1       161 3.08284E+00-7.37543E-01-7.96008E-01 5.32992E-01 8.67708E-01 4.14020E+01
 -1       162-1.95896E+00 8.20834E-01-1.56451E-01 7.98242E-01 2.42892E-01 4.37830E+01
 -1       163 1.10492E+00 5.63810E+00-6.04774E+00 1.01019E+00-4.81293E-01 1.28785E+00
 -1       164 1.74094E+00 1.78708E+00-3.48748E+00 2.29566E+00 1.77953E+00 1.38779E+00
 -1       165-1.14052E+00-1.28513E-01 6.88760E-01-1.48432E+00 1.54183E+00 1.71173E+00
 -1       166 2.84359E-02-6.61000E+00 6.27814E+00 3.99312E-02 9.88752E-02 3.08717E-01
 -1       167 1.24565E+00-5.45317E+00 2.91564E+00 2.98976E+00-1.96918E+00-9.77328E-01
 -1       168-9.61050E-01 2.75678E+00-1.10792E+00 3.77759E+00-2.20475E+00 5.36668E-01
 -1       169-1.43824E-02 5.95377E+00-6.19458E+00 7.69275E-01 1.06251E+00 1.80461E+00
 -1       170 1.87095E-01-6.46807E+00 6.40876E+00-5.08913E-01 2.91457E-01-6.26486E-01
 -1       171 5.61391E-01 2.67376E+00-4.37718E+00-1.73075E+00 2.06138E+00-3.97953E-01
 -1       172-1.51776E+00 1.61674E-01 1.82763E+00 3.27544E-01 2.49314E+00-2.23295E+00
 -1       173 6.63957E-01-3.53883E+00 2.69882E+00-2.35492E+00-3.85241E-01 1.19682E+00
 -1       174 1.12261E+00 2.94257E-01-1.45425E+00-1.41912E+00-1.87001E+00 5.58939E-01
 -1       175-1.35853E+00 4.93739E+00-3.43979E+00 7.16675E-01-1.22690E+00-1.32643E+00
 -1       176-7.01678E-01-3.75784E+00 5.14848E+00-1.73252E+00-1.40764E-01 2.89443E+00
 -1       177 1.11331E-01-8.50983E-01 7.61084E-01-1.29120E+00 5.85905E-02 2.79476E-01
 -1       178-5.90329E-01 4.80743E+00-3.60802E+00 1.84764E+00-1.12625E+00 1.76225E+00
 -1       179 4.88453E-01-1.02531E+00 6.30293E-01-1.26460E+00-4.21639E-01-1.60330E+00
 -1       180-2.92454E-01-6.43908E-01 9.70237E-01-2.92779E-01 1.10127E+00 5.17917E-01
 -1       181 1.10086E+00 3.08470E-05-8.31955E-06-2.85267E+01-2.78535E-06 2.79641E+01
 -1       182 3.88189E+00 5.40421E-05 1.00189E-05 1.48075E+00 6.66468E-06 3.12521E+01
 -1       183-9.43776E+00 1.10246E-01 1.97320E+00-1.28360E+01-5.58381E-01 3.00486E+01
 -1       184-1.18597E+01-2.76092E-05 4.62447E-07 3.04064E+01-7.30960E-06 2.62394E+01
 -1       185-8.99113E+00-2.65843E-05-5.84435E-06 3.41826E+01-1.11734E-05 1.31326E+01
 -1       186 3.06796E+00-5.65478E-01-5.01029E-01 3.49628E+01 5.42141E-01 1.45890E-01
 -1       187-3.10364E+00-8.33440E-01 1.82240E+00 2.90165E+01 4.16017E-01-2.81106E+01
 -1       188-3.37058E+00 1.75453E+00-1.17715E+00-2.97310E+01-4.15186E-01-2.83145E+01
 -1       189 7.32066E+00 1.77410E-01-1.80353E+00-7.90027E+00-3.80275E-01-3.25621E+01
 -1       190-6.78698E+00-1.55967E-05-1.64764E-05 7.33490E+00-1.11390E-06-3.26138E+01
 -1       191-5.43522E+00 6.47568E-01 1.13560E-02-2.35373E+01-1.21115E-01-1.43384E+01
 -1       192 8.00003E+00 2.05252E-05-5.92996E-06-2.92460E+01-8.04317E-06 1.25721E+01
 -1       193 8.47986E+00 1.53255E-01-2.09378E+00 1.67146E+01-2.42608E-01 2.95621E+01
 -1       194 2.41336E+00-8.22491E-01-1.49253E-02 2.38892E+01-2.03339E-01-1.50943E+01
 -1       195-2.12176E+00 1.80473E-05-1.67147E-06-3.11702E+01-7.81135E-06-6.86711E-02
 -1       196-2.30180E+00 1.89224E-02 1.59107E-01-5.96313E+00-5.77507E-02-8.63143E-01
 -1       197-1.84571E+00 1.81042E-01-6.00549E-03 5.05635E+00-1.82130E-01 1.41534E+01
 -1       198 1.64576E-01-2.76946E-05 2.51749E-05 1.16221E+01 1.30028E-05-9.37207E-01
 -1       199-5.83977E-01-5.94695E-01 1.05410E+00 1.11448E+01 3.83648E-01 5.07364E+00
 -1       200 2.01998E+00-3.54040E+00 8.30371E-01 8.91939E+00-6.64736E-01 1.77450E-01
 -1       201-2.02548E-01-1.08738E+00 3.94220E-01 2.36277E+01-9.95004E-01 7.14820E-01
 -1       202-1.01204E+00-1.66160E+00 3.26924E+00 2.92006E+00 4.78463E-01 3.90354E+00
 -1       203 1.34123E-01-2.16561E+00 1.59642E+00 4.60778E+00-1.72930E+00 7.68836E-01
 -1       204-1.23938E+00 2.30353E+00-1.34514E+00-1.20955E+01-1.53363E-02 9.21422E-01
 -1       205 1.96982E-01 2.76568E+00-2.86515E+00-1.03960E+01 4.89405E-01 3.35561E+00
 -1       206-1.58999E+00-1.40111E+00 3.26241E+00-8.18524E-01 1.02775E+00-7.39047E+00
 -1       207 1.27617E+00-3.33406E+00 1.49520E+00-6.18124E+00-6.10175E-01-1.92116E+00
 -1       208-5.51439E-01 2.95547E-01 3.95089E-01-1.58868E+00 1.05035E+00-3.59642E+00
 -1       209 3.92706E-02-3.50361E-01 5.01431E-01 8.34757E+00-5.43931E-01 9.77354E-01
 -1       210-4.34503E-01 8.82039E-01-1.28469E+00 1.89436E+00-8.78949E-01-2.72653E+00
 -1       211 6.12942E-01 8.12857E-01-1.01710E+00 7.23352E+00 3.07418E-02-1.92557E+01
 -1       212 1.11048E+00-5.85195E-01 3.17074E-01-1.56358E+00 4.13213E-01-4.59799E+00
 -1       213-2.34673E-01-2.31274E-01 1.10290E+00 5.07323E+00 4.74822E-01-2.18279E+01
 -1       214 8.34926E-01-7.07081E-02-4.24850E-01-1.78001E+00 4.32586E-02-2.71481E+01
 -1       215-1.25898E+00 5.87584E-01-6.51139E-01-8.85520E-01-3.53781E-02 3.76136E+00
 -1       216-5.34678E-01 5.31199E-01-3.91221E-01 5.61256E+00 1.65834E-01 2.32476E+01
 -1       217 1.17430E+00 2.31493E-01-3.14633E-01 5.23772E-01-2.00721E-01 4.99073E+00
 -1       218 2.08445E-01-4.21242E-01 8.84382E-01 6.66203E+00-2.81569E-01 2.11531E+01
 -1       219-2.33741E-01 8.97908E-01-8.56372E-01-1.16669E+00-2.61798E-03 2.84833E+01
 -1       220-2.62271E+00 2.12866E-01 6.11050E-01-6.98013E+00-5.27459E-01 9.59549E-01
 -1       221 3.36181E-01-5.29575E-01 2.35702E-01-2.10412E+00-1.91936E-01-1.98135E+01
 -1       222-2.54043E-01-1.12954E+00 1.77552E+00-4.57328E+00 2.03172E-01-2.35611E+01
 -1       223 4.27225E+00 1.39189E+00-2.58771E+00-2.48673E+01-1.32798E-01-2.54273E+01
 -1       224-1.26094E+00-1.17186E+00 2.03202E+00-2.06540E+01-2.09778E-01-1.94636E+01
 -1       225 1.07991E+00-1.59967E+00 7.32084E-01-2.28916E+01 8.18423E-01-5.19210E+00
 -1       226-3.59119E-01 3.15594E-01 2.01142E-01-6.68651E+00 8.18393E-02-8.58079E+00
 -1       227 3.30328E+00-2.74830E+00 1.24096E+00-2.72248E+01 9.25895E-01 2.31326E+01
 -1       228 4.87258E-01-2.17103E-01-9.40459E-02-1.86197E+01-6.15200E-03-3.98264E+00
 -1       229 7.36736E-01 4.11719E-01-4.58973E-01-2.49312E+01-2.17875E-01 1.35251E+00
 -1       230-3.19087E+00 1.72898E+00 3.84258E-01-1.88922E+01-1.88825E-01 4.47630E+00
 -1       231-4.04655E-01 5.90293E-01 7.86408E-02-2.68972E+01 7.92985E-01 8.20030E+00
 -1       232 6.06197E-01-1.56694E+00 1.00742E+00-3.08536E+00 6.01503E-01-1.78573E+01
 -1       233-1.64408E+00 1.46166E+00-5.72644E-01-1.95672E+01-6.02835E-01 1.94579E+01
 -1       234-5.07157E-01 1.74205E+00-2.12154E+00-1.12660E+01-6.10029E-01 1.51265E+01
 -1       235 4.64574E-01-1.09924E-01-7.47645E-03-8.05526E+00-3.14161E-01 2.50272E+01
 -1       236 5.97930E-01 3.96913E-01-6.25675E-01-3.26221E+00 5.88269E-01 1.97337E+01
 -1       237 9.10716E-01 2.82089E-01-6.62718E-01-2.19505E+00-4.30943E-01-2.51228E+00
 -1       238-9.27160E-01-1.57949E+00 1.96567E+00-1.88841E+01 3.05275E-02-1.75664E+00
 -1       239-1.22873E+00-6.36762E-01 2.17878E+00-1.06306E+01-7.51000E-01 2.82948E+01
 -1       240 1.32587E-01-2.41338E-01-7.53115E-01-1.91024E+00-1.47207E+00 3.23691E+01
 -1       241 1.64830E+00 2.69469E+00-3.64586E+00 2.55921E+00-5.82579E-01-9.09711E+00
 -1       242 6.19073E-01 8.55388E-01-1.39919E+00-4.28368E-01 1.21427E+00-1.20545E+01
 -1       243 2.93839E-01 4.26052E-01-8.19310E-01 4.72681E+00 5.04610E-01-1.17222E+01
 -1       244-1.37155E+00 2.48778E+00-1.39427E+00 8.59116E+00-9.07553E-01 1.78209E+00
 -1       245-5.50542E-01 3.30812E-01 1.68376E-01 3.71336E+00-3.38575E-02-5.67177E-01
 -1       246-2.83255E+00 3.91198E+00-4.56553E-01 3.52621E+01 1.31454E+00 7.63569E+00
 -1       247-2.73633E+00 1.33831E+00 1.78060E-01 2.67417E+01 1.15850E+00 3.51372E+00
 -1       248 8.72046E-01 6.18764E-01-5.85500E-01 1.31440E+01 4.04771E-01 7.66661E+00
 -1       249 3.75298E+00-1.90370E+00-3.10687E-01 2.61890E+01 1.12746E+00-5.67897E+00
 -1       250 5.38474E+00 2.55613E+00-2.56191E+00 2.96767E+01-2.73100E-01 2.29624E+01
 -1       251-3.94512E-01 2.38748E-01-3.61793E-01 3.03380E+00 6.31565E-02 6.52094E-01
 -1       252-3.02416E-01 1.05349E+00-7.83995E-01-3.87430E+00 1.35567E-01 4.89823E+00
 -1       253-6.99932E-01-1.50886E-01 8.04259E-01-3.93695E+00-7.29549E-01 2.12031E+01
 -1       254 7.37982E-01-7.50530E-01 1.86130E-01-2.15646E+01 6.38371E-01 4.92349E+00
 -1       255-2.06159E+00 2.21014E+00-9.53938E-01 1.96841E+01-2.45550E-01-2.16073E+01
 -1       256 1.22346E+00-1.88310E+00 8.65824E-01 1.74659E+01 4.47073E-02 1.97529E+01
 -1       257 3.69440E-01-6.92090E-01 1.89283E-01 3.61457E+00-2.06037E-01-7.54067E+00
 -1       258 6.28281E-01-2.47610E-01 4.46702E-01-3.53948E+00-4.40834E-01 6.12101E+00
 -1       259 2.19430E+00 7.81007E-01-1.90241E+00 1.22829E+01-8.36438E-01 3.01760E+01
 -1       260 2.70826E+00-2.38858E+00 1.62789E+00 2.54479E+01 2.63643E-03-2.61686E+01
 -1       261-1.65495E+00 1.33207E-01-2.13499E-01 2.31079E+01-1.13054E-01-2.25380E+00
 -1       262-2.53665E+00 2.48005E+00-2.25319E-01 2.43141E+01-1.78378E-01 2.30218E+01
 -1       263 2.68420E-01-1.10685E+00 1.52368E+00 2.85266E+00 4.32463E-01 1.49459E+01
 -1       264 8.84810E-01 5.79492E-01-1.18227E+00-6.07256E-01 8.53081E-01 1.23214E+01
 -1       265-1.93213E-01 1.47974E+00-1.06052E+00-2.02893E+01 1.09325E-01-1.20446E+01
 -1       266 2.23032E+00-1.50610E+00 6.83293E-02-2.31601E+01 1.06541E+00-2.70522E+00
 -1       267-1.88748E-01-3.04460E-01-2.96952E-01-3.01809E+00-5.12460E-01-3.08112E+01
 -1       268-1.71482E+00-2.66959E-01 1.59081E+00 3.64853E+00-7.38941E-01-3.35232E+01
 -1       269-1.04468E+00 1.32839E+00-7.53284E-02 1.27173E+01 2.27639E-01-2.96672E+00
 -1       270 5.13675E+00-2.90462E+00 8.83765E-01-2.92792E+01 1.24256E+00 1.15786E+01
 -1       271 3.92788E-01-8.79712E-01 9.03081E-01 2.05061E+01-1.34881E-01 1.67363E+00
 -1       272-3.59236E+00-4.11141E+00 1.84209E+00-3.07716E+01-3.46352E-01 2.30536E+01
 -1       273 1.72855E-01 9.19703E-01-4.51005E-01 2.66563E+01 1.14415E-01-1.15861E+00
 -3
    1PSTEP                        10           1           1          
    1PGM                1.000000E+00                                  
    1PGK                6.536643E+11                                  
    1PHID                         -1                                  
    1PSUBC                         0                                  
    1PMODE                         4                                  
  100CL  104 1.28676E+05         273                     2    4MODAL      1
 -4  DISP        4    1
 -5  D1          1    2    1    0
 -5  D2          1    2    2    0
 -5  D3          1    2    3    0
 -5  ALL         1    2    0    0    1ALL
 -1         1 4.40955E+02-8.58061E+00 1.15809E+01
 -1         2 4.35365E+02-1.17118E+01-4.93245E+00
 -1         3 4.39171E+02 7.00853E+00 1.00649E+01
 -1         4 4.33881E+02 5.51675E+00-7.28883E+00
 -1         5 0.00000E+00 0.00000E+00 0.00000E+00
 -1         6 0.00000E+00 0.00000E+00 0.00000E+00
 -1         7 0.00000E+00 0.00000E+00 0.00000E+00
 -1         8 0.00000E+00 0.00000E+00 0.00000E+00
 -1         9 0.00000E+00 0.00000E+00 0.00000E+00
 -1        10 0.00000E+00 0.00000E+00 0.00000E+00
 -1        11 2.50798E+02-9.83905E+01-1.12376E+02
 -1        12 3.83300E+02-7.30037E+01-7.33188E+01
 -1        13 4.80216E+02 1.55875E+00-3.00040E+00
 -1        14 4.79774E+02-6.01953E+00-2.10382E+00
 -1        15 2.42720E+02 1.00689E+02-1.07993E+02
 -1        16 3.82409E+02 7.05437E+01-7.26796E+01
 -1        17 0.00000E+00 0.00000E+00 0.00000E+00
 -1        18 0.00000E+00 0.00000E+00 0.00000E+00
 -1        19 2.52302E+02-1.13730E+02 9.50611E+01
 -1        20 3.85407E+02-7.39164E+01 7.43100E+01
 -1        21 4.87065E+02 3.47773E+00 9.10246E+00
 -1        22 4.87862E+02-4.34761E+00 8.64936E+00
 -1        23 2.43030E+02 1.05504E+02 1.02130E+02
 -1        24 3.84064E+02 7.47078E+01 7.13886E+01
 -1        25 4.85096E+02-6.77258E+00 6.96701E+00
 -1        26 4.83107E+02-9.41347E+00-1.33319E+00
 -1        27 0.00000E+00 0.00000E+00 0.00000E+00
 -1        28 0.00000E+00 0.00000E+00 0.00000E+00
 -1        29 4.83114E+02 5.05518E+00 4.68337E+00
 -1        30 4.79424E+02 4.67543E+00-3.50550E+00
 -1        31 0.00000E+00 0.00000E+00 0.00000E+00
 -1        32 0.00000E+00 0.00000E+00 0.00000E+00
 -1        33 1.96926E+02 2.94366E+01-1.09293E+02
 -1        34 3.19698E+02-3.67342E+01-1.05577E+02
 -1        35 4.00442E+02 2.49470E+01-8.38730E+01
 -1        36 1.94328E+02 2.93195E+01 1.06867E+02
 -1        37 3.30979E+02-3.56839E+01 1.07679E+02
 -1        38 3.99185E+02 2.95157E+01 8.35387E+01
 -1        39 3.46500E+02-1.04362E+02 4.02438E+01
 -1        40 4.33168E+02-6.92589E+01-1.46894E+01
 -1        41 2.61464E+02-1.11359E+02-3.27565E+01
 -1        42 2.42659E+02 1.11170E+02 5.33625E+01
 -1        43 4.24251E+02 7.21030E+01 2.04056E+00
 -1        44 2.45766E+02 1.16501E+02-3.06376E+01
 -1        45 5.35948E+02 1.82991E+00 5.19847E+00
 -1        46 5.30047E+02 9.57893E-01-3.15457E+00
 -1        47 5.34101E+02-6.16365E+00 2.53453E+00
 -1        48 0.00000E+00 0.00000E+00 0.00000E+00
 -1        49 0.00000E+00 0.00000E+00 0.00000E+00
 -1        50 0.00000E+00 0.00000E+00 0.00000E+00
 -1        51 4.69426E+02-3.00869E+01 2.38342E+01
 -1        52 4.69653E+02 4.54544E+00-3.01299E+01
 -1        53 3.88194E+02 3.18248E+01 2.58797E+01
 -1        54 2.25852E+02-2.76015E-01-1.28840E+01
 -1        55 0.00000E+00 0.00000E+00 0.00000E+00
 -1        56 0.00000E+00 0.00000E+00 0.00000E+00
 -1        57 0.00000E+00 0.00000E+00 0.00000E+00
 -1        58 1.37813E+02-8.34531E+01-8.55669E+01
 -1        59 3.23870E+02-9.44299E+01-9.90438E+01
 -1        60 4.22797E+02-4.26931E+01-3.90356E+01
 -1        61 4.63154E+02 4.89979E+00-5.52584E+00
 -1        62 4.83641E+02-1.99031E+00-2.27350E+00
 -1        63 4.62058E+02-1.03320E+01-4.16314E+00
 -1        64 1.43068E+02 9.33672E+01-7.37280E+01
 -1        65 3.22074E+02 9.37543E+01-9.77848E+01
 -1        66 4.21373E+02 3.77932E+01-4.00360E+01
 -1        67 0.00000E+00 0.00000E+00 0.00000E+00
 -1        68 0.00000E+00 0.00000E+00 0.00000E+00
 -1        69 0.00000E+00 0.00000E+00 0.00000E+00
 -1        70 1.37022E+02-8.32041E+01 8.09273E+01
 -1        71 3.25176E+02-9.97322E+01 9.56800E+01
 -1        72 4.27565E+02-4.16552E+01 4.32428E+01
 -1        73 4.68818E+02 6.51973E+00 9.75376E+00
 -1        74 4.91546E+02-2.43689E-01 8.89540E+00
 -1        75 4.70110E+02-7.83648E+00 1.04093E+01
 -1        76 1.46600E+02 8.27955E+01 8.20002E+01
 -1        77 3.22878E+02 9.82294E+01 9.49263E+01
 -1        78 4.25790E+02 4.07066E+01 4.10733E+01
 -1        79 4.68841E+02-7.88484E+00 1.07795E+01
 -1        80 4.88668E+02-7.99733E+00 2.48872E+00
 -1        81 4.64262E+02-1.08780E+01-4.43613E+00
 -1        82 0.00000E+00 0.00000E+00 0.00000E+00
 -1        83 0.00000E+00 0.00000E+00 0.00000E+00
 -1        84 0.00000E+00 0.00000E+00 0.00000E+00
 -1        85 4.65733E+02 6.27012E+00 8.80657E+00
 -1        86 4.87501E+02 4.94017E+00 9.09055E-01
 -1        87 4.61256E+02 5.34762E+00-6.62032E+00
 -1        88 0.00000E+00 0.00000E+00 0.00000E+00
 -1        89 0.00000E+00 0.00000E+00 0.00000E+00
 -1        90 0.00000E+00 0.00000E+00 0.00000E+00
 -1        91 9.81363E+01 3.95944E+01-7.40130E+01
 -1        92 2.17112E+02 6.65541E+01-1.08631E+02
 -1        93 9.99256E+01 2.02264E+01-8.06093E+01
 -1        94 1.01603E+02 1.35146E+00-7.68025E+01
 -1        95 1.23853E+02-4.72055E+01-8.19500E+01
 -1        96 2.76267E+02-7.33458E+01-1.09172E+02
 -1        97 3.64138E+02-6.45935E+01-9.09272E+01
 -1        98 4.46811E+02-3.28005E+01-3.98500E+01
 -1        99 4.48780E+02 2.73494E+01-4.01983E+01
 -1       100 4.61434E+02-2.75026E+00-4.53687E+01
 -1       101 4.59602E+02 1.43608E+01-4.53019E+01
 -1       102 3.97819E+02 5.29597E+01-7.76473E+01
 -1       103 3.19295E+02 6.82516E+01-1.00698E+02
 -1       104 1.72060E+02-2.92369E+01-9.89258E+01
 -1       105 4.35147E+02-2.55817E+01-6.15352E+01
 -1       106 3.08123E+02 3.31385E+01-1.07133E+02
 -1       107 3.63762E+02-3.52193E+00-9.62224E+01
 -1       108 2.60174E+02-8.26164E-01-1.10976E+02
 -1       109 9.87551E+01 3.67739E+01 7.44510E+01
 -1       110 9.29442E+01 1.62866E+01 7.51007E+01
 -1       111 9.16122E+01-9.91824E-01 7.02137E+01
 -1       112 1.16355E+02-4.49492E+01 7.80372E+01
 -1       113 3.70430E+02-6.53453E+01 9.04949E+01
 -1       114 2.84870E+02-7.96430E+01 1.04532E+02
 -1       115 4.54650E+02-3.12589E+01 4.35686E+01
 -1       116 4.53632E+02 3.03479E+01 4.12125E+01
 -1       117 4.64288E+02 1.70438E+01 4.65805E+01
 -1       118 4.68401E+02-1.90002E-01 4.80648E+01
 -1       119 3.99091E+02 5.73513E+01 7.66314E+01
 -1       120 3.19452E+02 7.24178E+01 9.96131E+01
 -1       121 2.17891E+02 7.08642E+01 1.04092E+02
 -1       122 1.59299E+02-3.13788E+01 9.09689E+01
 -1       123 4.44010E+02-2.38928E+01 6.31189E+01
 -1       124 3.07489E+02 3.68545E+01 1.04974E+02
 -1       125 2.64309E+02 3.39810E-01 1.11378E+02
 -1       126 3.68199E+02-2.59592E-01 9.54959E+01
 -1       127 1.22656E+02-7.87262E+01 4.61422E+01
 -1       128 2.89107E+02-1.10416E+02 7.43611E+01
 -1       129 3.75605E+02-8.86306E+01 6.52733E+01
 -1       130 4.53231E+02-4.22822E+01 3.25501E+01
 -1       131 4.74115E+02-3.94422E+01 4.44746E+00
 -1       132 4.71812E+02-3.90430E+01-1.07486E+01
 -1       133 4.49473E+02-4.23992E+01-2.96962E+01
 -1       134 1.17971E+02-8.18857E+01-4.92261E+01
 -1       135 3.43628E+02-9.56149E+01-6.82403E+01
 -1       136 2.51094E+02-1.05143E+02-7.45840E+01
 -1       137 1.25761E+02-8.66437E+01-2.74314E+01
 -1       138 1.33703E+02-8.65704E+01 2.55522E+00
 -1       139 4.46542E+02-5.93308E+01 2.48339E+01
 -1       140 4.16246E+02-7.07013E+01-4.59652E+01
 -1       141 1.80796E+02-9.27276E+01 3.04555E+01
 -1       142 3.07952E+02-1.09968E+02 3.58870E+00
 -1       143 3.60258E+02-9.46783E+01-2.62658E+01
 -1       144 3.94715E+02-8.58316E+01 8.40759E+00
 -1       145 1.33353E+02 8.73639E+01 5.26650E+01
 -1       146 2.42901E+02 1.06860E+02 8.03796E+01
 -1       147 3.33895E+02 9.78674E+01 7.56549E+01
 -1       148 4.49905E+02 4.07330E+01 3.10840E+01
 -1       149 4.69666E+02 3.89374E+01-8.38625E+00
 -1       150 4.70382E+02 3.88404E+01 8.94937E+00
 -1       151 4.46713E+02 3.88470E+01-3.11840E+01
 -1       152 1.30800E+02 8.65273E+01-5.10452E+01
 -1       153 2.41638E+02 1.08053E+02-7.31292E+01
 -1       154 3.37450E+02 9.67220E+01-6.77507E+01
 -1       155 1.19779E+02 8.34916E+01-2.33386E+01
 -1       156 1.23246E+02 8.62210E+01 2.79229E+00
 -1       157 4.14302E+02 7.27413E+01 4.15260E+01
 -1       158 4.15237E+02 7.03246E+01-3.95251E+01
 -1       159 1.20271E+02 8.17066E+01 2.90961E+01
 -1       160 2.44089E+02 1.14103E+02 1.15243E+01
 -1       161 3.43627E+02 9.93370E+01 2.69882E+01
 -1       162 3.46621E+02 9.90678E+01-1.37224E+01
 -1       163 4.96956E+02 5.95729E+00 8.91683E+00
 -1       164 5.16386E+02 5.31386E+00 5.21633E+00
 -1       165 5.19204E+02 5.13076E+00 6.53908E-01
 -1       166 4.92152E+02 4.79204E+00-4.91446E+00
 -1       167 5.10720E+02 1.39282E+00-4.04486E+00
 -1       168 5.13297E+02-2.79990E+00-3.67753E+00
 -1       169 4.92694E+02-9.85871E+00-3.69180E+00
 -1       170 5.00177E+02-7.30772E+00 9.72537E+00
 -1       171 5.14152E+02-9.08408E+00 8.59327E-02
 -1       172 5.16763E+02-7.86583E+00 5.14051E+00
 -1       173 5.25944E+02-5.82917E+00 8.86162E+00
 -1       174 5.22716E+02-1.60168E+00 8.84426E+00
 -1       175 5.17779E+02 2.78837E+00 9.03066E+00
 -1       176 5.14088E+02 4.69083E+00-3.47918E+00
 -1       177 5.38175E+02 1.51874E+00 5.78653E-01
 -1       178 5.19635E+02-6.09275E+00-2.91147E+00
 -1       179 5.37829E+02-2.78713E+00-9.11301E-01
 -1       180 5.40637E+02-2.36511E+00 4.14193E+00
 -1       181 0.00000E+00 0.00000E+00 0.00000E+00
 -1       182 0.00000E+00 0.00000E+00 0.00000E+00
 -1       183 0.00000E+00 0.00000E+00 0.00000E+00
 -1       184 0.00000E+00 0.00000E+00 0.00000E+00
 -1       185 0.00000E+00 0.00000E+00 0.00000E+00
 -1       186 0.00000E+00 0.00000E+00 0.00000E+00
 -1       187 0.00000E+00 0.00000E+00 0.00000E+00
 -1       188 0.00000E+00 0.00000E+00 0.00000E+00
 -1       189 0.00000E+00 0.00000E+00 0.00000E+00
 -1       190 0.00000E+00 0.00000E+00 0.00000E+00
 -1       191 0.00000E+00 0.00000E+00 0.00000E+00
 -1       192 0.00000E+00 0.00000E+00 0.00000E+00
 -1       193 0.00000E+00 0.00000E+00 0.00000E+00
 -1       194 0.00000E+00 0.00000E+00 0.00000E+00
 -1       195 0.00000E+00 0.00000E+00 0.00000E+00
 -1       196 0.00000E+00 0.00000E+00 0.00000E+00
 -1       197 0.00000E+00 0.00000E+00 0.00000E+00
 -1       198 0.00000E+00 0.00000E+00 0.00000E+00
 -1       199 4.38679E+02 4.11463E+01-5.27398E+01
 -1       200 4.97574E+02 6.79438E+00-2.74940E+01
 -1       201 4.37291E+02 1.39080E+01-5.75836E+01
 -1       202 5.02199E+02 2.15363E+01-1.62340E+01
 -1       203 5.14388E+02 4.19376E+00-1.65232E+01
 -1       204 4.92058E+02 1.58686E+01 3.37327E+01
 -1       205 4.73850E+02 3.34676E+01 3.48607E+01
 -1       206 4.98752E+02-2.97158E+01 1.55388E+01
 -1       207 5.01719E+02-1.64123E+01 2.91006E+01
 -1       208 5.16778E+02-1.80356E+01 7.81452E+00
 -1       209 3.65654E+02 3.63325E+00-2.92803E+01
 -1       210 4.74182E+02-1.26447E+01-3.55900E+00
 -1       211 3.76307E+02-4.91994E+01-3.58633E+01
 -1       212 3.64662E+02-2.07607E+01 7.34480E+00
 -1       213 2.42297E+02-5.40767E+01-2.33527E+01
 -1       214 3.73287E+02-7.09615E+01-1.83045E+00
 -1       215 3.11058E+02 1.74740E+01 7.19230E+00
 -1       216 2.30509E+02 5.59047E+01-2.17061E+01
 -1       217 4.35261E+02 1.70087E+01-6.79550E+00
 -1       218 3.68249E+02 5.74587E+01-3.62088E+01
 -1       219 3.15496E+02 7.38625E+01-1.70210E+00
 -1       220 4.34468E+02-3.24229E+00 2.49157E+01
 -1       221 2.91438E+02-5.41941E+01 1.32619E+01
 -1       222 4.10851E+02-6.59963E+01 3.16989E+01
 -1       223 1.58119E+02-6.21024E+01 6.13135E+01
 -1       224 3.38734E+02-7.30768E+01 7.46489E+01
 -1       225 4.04441E+02-3.50912E+01 6.41313E+01
 -1       226 4.37845E+02-5.34012E+01 5.05076E+01
 -1       227 2.13818E+02 6.94276E+01 8.01086E+01
 -1       228 2.77131E+02-1.68658E+01 4.66557E+01
 -1       229 3.59082E+02-1.06352E+00 6.73539E+01
 -1       230 4.01358E+02 3.05773E+01 6.07895E+01
 -1       231 2.88455E+02 3.48709E+01 7.12782E+01
 -1       232 4.56557E+02-5.25481E+01 4.73046E+00
 -1       233 3.31285E+02 7.22039E+01 7.84522E+01
 -1       234 4.26968E+02 5.59052E+01 4.41693E+01
 -1       235 3.12766E+02 7.41281E+01 4.06688E+01
 -1       236 4.17160E+02 6.00392E+01 1.33136E+01
 -1       237 5.20721E+02-3.55254E+00 1.41893E+01
 -1       238 4.43355E+02-3.37583E+00 5.39449E+01
 -1       239 1.12477E+02 5.15566E+01 2.51432E+01
 -1       240 1.09277E+02 5.06310E+01-1.37925E+00
 -1       241 4.83659E+02-3.02385E+01-2.41259E+01
 -1       242 4.99384E+02-3.07601E+01-3.07110E+00
 -1       243 4.62011E+02-3.74776E+01-2.21982E+01
 -1       244 4.98749E+02-7.37089E+00-2.72808E+01
 -1       245 5.19708E+02-8.54055E+00-8.18629E+00
 -1       246 8.43255E+01 1.79995E+01-4.76573E+01
 -1       247 2.03542E+02 1.43981E+01-6.30555E+01
 -1       248 1.01660E+02 1.21039E+01-2.10951E+01
 -1       249 1.02339E+02-9.92947E+00-3.69001E+01
 -1       250 8.54626E+01 4.06060E+01-4.41918E+01
 -1       251 5.21521E+02 6.89579E+00-1.96157E+00
 -1       252 4.94480E+02 1.82079E+01 1.74880E+01
 -1       253 2.27146E+02 5.48541E+01 1.89724E+01
 -1       254 2.01491E+02 1.65779E+01 4.53416E+01
 -1       255 2.92665E+02-7.30948E+01-7.32729E+01
 -1       256 3.35193E+02 6.89157E+01-6.94401E+01
 -1       257 1.04334E+02-1.33737E+01-4.17282E+00
 -1       258 1.03882E+02 1.06779E+01 4.51472E+00
 -1       259 1.11663E+02 5.06884E+01-2.76716E+01
 -1       260 1.23320E+02-5.45549E+01-5.03334E+01
 -1       261 2.79147E+02-1.80461E+01-6.62811E+01
 -1       262 2.14200E+02 7.01688E+01-7.04557E+01
 -1       263 4.57468E+02 4.19193E+01-1.41391E+01
 -1       264 5.00129E+02 2.80044E+01 8.42451E+00
 -1       265 1.56684E+02-3.21948E+01 4.37117E+01
 -1       266 8.13398E+01-8.44170E-01 3.03672E+01
 -1       267 1.78139E+02-6.68420E+01 1.79936E+01
 -1       268 1.19129E+02-5.51088E+01-1.12298E+01
 -1       269 4.39751E+02-3.81111E+01-5.32441E+01
 -1       270 8.27220E+01 1.79850E+01 3.84644E+01
 -1       271 3.32770E+02 1.61044E+01-6.36431E+01
 -1       272 8.46397E+01 4.00842E+01 4.21768E+01
 -1       273 3.98879E+02-1.43603E+01-6.72937E+01
 -3
    1PSTEP                        11           1           1          
    1PGM                1.000000E+00                                  
    1PGK                6.536643E+11                                  
    1PHID                         -1                                  
    1PSUBC                         0                                  
    1PMODE                         4                                  
  100CL  104 1.28676E+05         273                     2    4MODAL      1
 -4  STRESS      6    1
 -5  SXX         1    4    1    1
 -5  SYY         1    4    2    2
 -5  SZZ         1    4    3    3
 -5  SXY         1    4    1    2
 -5  SYZ         1    4    2    3
 -5  SZX         1    4    3    1
 -1         1-7.53066E+04 7.50834E+04 8.13461E+04 2.14920E+04 6.10310E+04-1.43451E+04
 -1         2-8.49770E+04 7.97057E+03 7.71517E+04 5.46811E+04-3.04648E+04-1.07307E+04
 -1         3-6.56222E+04 8.06712E+04 2.55603E+04 1.14241E+04-2.96295E+04-3.62663E+04
 -1         4-3.13300E+04 1.03295E+05 9.33955E+04 1.10933E+03 5.62889E+04-1.03901E+04
 -1         5 2.43529E+07 1.04370E+07 1.04370E+07-5.15373E+06-1.84838E+00 5.37866E+06
 -1         6 2.47375E+07 1.06018E+07 1.06018E+07-5.53801E+06 1.28940E+00-5.40791E+06
 -1         7 2.13234E+07 5.68204E+06 6.12835E+06 3.95189E+06 6.08319E+05 4.16957E+06
 -1         8 2.11047E+07 7.12565E+06 8.46912E+06 4.07616E+06-2.60061E+05-5.03939E+06
 -1         9 2.04469E+07 8.76299E+06 8.76300E+06 1.48282E+06 7.64313E-02-6.14072E+06
 -1        10 1.71964E+07 5.86753E+06 5.12122E+06-1.41347E+06 5.33109E+04-3.77493E+06
 -1        11 1.01109E+07-3.38752E+06-3.28390E+06 9.33902E+05 3.65358E+05 7.43002E+05
 -1        12 6.35999E+06-1.83851E+05-1.91921E+05 2.53633E+05 6.21639E+04 2.59758E+05
 -1        13 2.91323E+04-4.57562E+05 1.08173E+05-9.62022E+04 6.23266E+04-2.17048E+04
 -1        14 1.71716E+05-6.13536E+05 6.39185E+04 6.84660E+04-4.30576E+04-8.93005E+03
 -1        15 9.81140E+06-1.28414E+06-1.36778E+06-9.05604E+05-1.65534E+05 6.78843E+04
 -1        16 6.36903E+06-1.29403E+05-2.27808E+05-2.20520E+05-6.15798E+04 2.11025E+05
 -1        17 1.80636E+07 7.74156E+06 7.74156E+06 1.04200E+06-4.61560E-01 5.62891E+06
 -1        18 1.70743E+07 6.93713E+06 6.78560E+06-1.30312E+06 4.60513E+04 4.60211E+06
 -1        19 1.02378E+07-3.09703E+06-3.09121E+06 6.44705E+05-2.95486E+05-9.77507E+05
 -1        20 6.60859E+06-1.24901E+05-1.60508E+05 1.20109E+05-2.88390E+04-1.42832E+05
 -1        21 1.01271E+05-4.87744E+05 6.34629E+04-7.63770E+04-4.19701E+04 2.34221E+04
 -1        22 1.38258E+05-5.23333E+05 8.47481E+04 1.38307E+05 2.64622E+04 7.62887E+03
 -1        23 9.75745E+06-6.86851E+05-2.14956E+05-4.02302E+05 6.92031E+04-2.96765E+05
 -1        24 6.47022E+06-1.05969E+05-1.46306E+05-1.43760E+05-6.37931E+03-1.97640E+05
 -1        25 1.58382E+05 1.04894E+05-5.30992E+05-4.57851E+04 1.36926E+04-9.79301E+04
 -1        26 1.02954E+05 6.00818E+04-4.69048E+05-2.06395E+04-5.73077E+04 1.11337E+05
 -1        27 1.77078E+07 5.84929E+06 6.27457E+06-3.74360E+06-1.21917E+05 1.57302E+06
 -1        28 1.74019E+07 7.06291E+06 7.10573E+06-4.97205E+06-2.02846E+05-1.65734E+06
 -1        29 1.38152E+05 1.20403E+05-5.63415E+05 2.13915E+04-4.86345E+03-3.46376E+04
 -1        30 1.21857E+04 3.75075E+04-4.95328E+05-1.85361E+04 3.15254E+04 8.48712E+04
 -1        31 1.72594E+07 6.82736E+06 6.89189E+06 4.42015E+06 2.43354E+05 1.63070E+06
 -1        32 1.73648E+07 5.90149E+06 6.43889E+06 4.20856E+06 9.36012E+04-1.60424E+06
 -1        33 1.37520E+07-1.00072E+06-2.07309E+06 4.30814E+05-9.66877E+04 7.37928E+04
 -1        34 1.12726E+07-1.41778E+06-4.57534E+05-2.77931E+04-3.44311E+03 5.24927E+05
 -1        35 8.61657E+06-1.45783E+06-3.90905E+05-2.06741E+05-1.56699E+04 4.55244E+05
 -1        36 1.46452E+07-5.34375E+05-1.38855E+06 4.83663E+05 4.00433E+03 2.60030E+05
 -1        37 1.23990E+07-1.92336E+06-1.42218E+06 1.24113E+05-8.59003E+04-4.61066E+05
 -1        38 9.00339E+06-1.29044E+06-1.84669E+05-2.35649E+05 5.32423E+04-2.74587E+05
 -1        39 1.12467E+07-1.01514E+06-1.60871E+06 5.30834E+05 6.34518E+04 1.02594E+05
 -1        40 7.07514E+06-4.61373E+04-1.11939E+06 2.82294E+05 4.08059E+04 2.87811E+05
 -1        41 1.36965E+07-1.47092E+06-1.51818E+06 2.73647E+05 7.01710E+04-1.00410E+05
 -1        42 1.33183E+07-9.60724E+05-1.08327E+06-2.84203E+05-2.09022E+04 8.35386E+04
 -1        43 7.59834E+06-1.26199E+05-1.34882E+06-2.89813E+05 1.06059E+04-2.21198E+04
 -1        44 1.40260E+07-1.43519E+06-1.21024E+06-2.12302E+05-3.60297E+04-1.83381E+05
 -1        45 3.12295E+05-7.20802E+05-7.41470E+05-1.19127E+05 3.78705E+03-9.49566E+04
 -1        46 3.77333E+04-7.07819E+05-5.06172E+05-1.69831E+04 4.27549E+03 6.72421E+04
 -1        47 1.75322E+05-6.75283E+05-8.17984E+05 7.84337E+04-1.81119E+03-2.73118E+04
 -1        48 1.47548E+07 5.69421E+06 5.72926E+06 1.48455E+06 5.63335E+04 9.88541E+05
 -1        49 1.44771E+07 5.81255E+06 5.75826E+06 1.35330E+06-2.62546E+04-2.03808E+06
 -1        50 1.55744E+07 5.62990E+06 5.57442E+06-1.55428E+06 8.13327E+03 1.40101E+05
 -1        51 8.37462E+06-1.06692E+06-1.16935E+06 2.21899E+05-2.12138E+04-1.68643E+05
 -1        52 8.41854E+06-1.21876E+06-9.24455E+05-9.69487E+04-3.37848E+04 2.87896E+05
 -1        53 1.24510E+07-9.79420E+05-1.09045E+06-2.14324E+05-4.47696E+04-1.40616E+05
 -1        54 1.62596E+07 2.66378E+05 1.59596E+05 9.39201E+04 2.03263E+04-1.08363E+05
 -1        55 2.00861E+07 8.60834E+06 8.60835E+06 2.59881E+06 1.42093E+00-5.76064E+06
 -1        56 2.07853E+07 8.90799E+06 8.90800E+06 3.95244E+05-1.26807E+00-5.92136E+06
 -1        57 2.24386E+07 9.61656E+06 9.61656E+06-3.83264E+06 1.28940E+00-5.23774E+06
 -1        58 1.56439E+07 6.11755E+05 4.03999E+05-1.69194E+06-2.35484E+05-1.70421E+06
 -1        59 7.26636E+06-3.39822E+05-8.22303E+05 4.03852E+05 1.44665E+05 5.96784E+05
 -1        60 3.15833E+06-7.78612E+04-7.41182E+04 1.45624E+05 6.78448E+04 1.03961E+05
 -1        61 1.09314E+05-1.74161E+05 5.97476E+04-5.86730E+04 8.65571E+04 1.68162E+03
 -1        62 5.05478E+04-4.25320E+05 1.50953E+05-1.20439E+04 3.54650E+04-9.50876E+04
 -1        63 1.59349E+05-2.69962E+05 7.01730E+04 6.27616E+04-7.23067E+04-1.88117E+04
 -1        64 1.54047E+07 3.40931E+05 1.97430E+06 1.27211E+06-1.45882E+05-1.94536E+06
 -1        65 7.69317E+06-3.40936E+05-5.46329E+05-8.22580E+04-1.18602E+05 3.70700E+05
 -1        66 3.17901E+06-9.72099E+04-6.30091E+04-1.03310E+05-8.87468E+04 8.59278E+04
 -1        67 1.92466E+07 8.24857E+06 8.24858E+06 2.23373E+06-1.03675E+00 5.59112E+06
 -1        68 1.77924E+07 7.62533E+06 7.62534E+06 3.69349E+04 6.02586E-01 5.34463E+06
 -1        69 2.09497E+07 8.97850E+06 8.97850E+06-3.35393E+06-1.84838E+00 5.24269E+06
 -1        70 1.58090E+07 6.13806E+05 6.45610E+05-1.77719E+06 3.37570E+05 1.55616E+06
 -1        71 7.46591E+06-3.63172E+05-2.49269E+05 4.08323E+05-1.65159E+05-2.55559E+05
 -1        72 3.38174E+06-5.72314E+04-6.47277E+04 7.58084E+04-6.49511E+04-8.48791E+04
 -1        73 8.96702E+04-1.66070E+05 4.90518E+04-3.72199E+04-3.68420E+04 1.56423E+04
 -1        74 1.18043E+05-4.25608E+05 1.08924E+05-7.72465E+03-4.99681E+04-5.76933E+04
 -1        75 9.07080E+04-2.01035E+05 6.18947E+04 7.60544E+04 7.99950E+04 1.17558E+04
 -1        76 1.53091E+07 9.96610E+05 4.86898E+05 1.35640E+06 1.50564E+05 1.35924E+06
 -1        77 7.95565E+06-3.06677E+05-1.92251E+05-6.49168E+04-8.97220E+02-1.64344E+05
 -1        78 3.35202E+06-7.84701E+04-5.19900E+04-8.46400E+04 2.62946E+04-1.17224E+05
 -1        79 1.02802E+05 5.80592E+04-2.18431E+05-1.37229E+04 7.42813E+04-6.33093E+04
 -1        80 5.95058E+04 1.18676E+05-4.46545E+05 1.75224E+04-6.47827E+04 5.52467E+04
 -1        81 1.21135E+05 3.67188E+04-1.76193E+05 6.51875E+02-5.94524E+04 5.09493E+04
 -1        82 2.19874E+07 9.42319E+06 9.42319E+06-4.94306E+06-1.84838E+00 3.74210E+06
 -1        83 1.86678E+07 8.00053E+06 8.00053E+06-4.86974E+06 3.93895E+00-3.52089E+05
 -1        84 2.14701E+07 9.20149E+06 9.20149E+06-5.46427E+06 1.28940E+00-3.69815E+06
 -1        85 1.52109E+05 8.25995E+04-2.54749E+05 4.65157E+04-3.27101E+04-4.97492E+04
 -1        86-6.50094E+04 7.36011E+04-4.52347E+05-5.09023E+04 1.00785E+04 2.10696E+04
 -1        87 1.33483E+05 7.71955E+04-1.81665E+05 1.30419E+04 7.88385E+04 5.33715E+04
 -1        88 1.84136E+07 6.22103E+06 7.39042E+06 4.00806E+06 4.47481E+05 3.08852E+06
 -1        89 1.87252E+07 8.02513E+06 8.02512E+06 4.96358E+06-1.24586E+00-2.32793E+05
 -1        90 1.97311E+07 5.98810E+06 7.71580E+06 4.06620E+06-1.38224E+05-3.48092E+06
 -1        91 1.67792E+07 2.28797E+06 1.64581E+06 2.23394E+06-2.42341E+05-2.15459E+06
 -1        92 1.18221E+07-1.06396E+06-1.43535E+06-3.74686E+05-1.69424E+05-1.35792E+05
 -1        93 1.56348E+07 2.50562E+06 5.02276E+05 1.00778E+06-1.39587E+04-2.23924E+06
 -1        94 1.58290E+07 2.58947E+06 1.10026E+06-2.54347E+05 2.63487E+05-1.94630E+06
 -1        95 1.40691E+07 7.88834E+05 2.61777E+05-3.12116E+05-4.03549E+04-1.58492E+06
 -1        96 1.09111E+07-8.93120E+05-5.49483E+05 1.13750E+05 6.96351E+04 6.22795E+05
 -1        97 8.84716E+06-7.76405E+05-1.49026E+05 8.26859E+04 9.53143E+03 3.14151E+05
 -1        98 3.44859E+06-3.72250E+05-6.09860E+04 1.55968E+05 1.76030E+03 1.41387E+05
 -1        99 3.40473E+06-2.99383E+05-2.23405E+03-1.84100E+05-3.25550E+04 1.13991E+05
 -1       100 4.23710E+06-1.11132E+06-1.22511E+05-4.96820E+04-2.29300E+04 1.75208E+05
 -1       101 3.99493E+06-1.02533E+06-1.42497E+05-1.63024E+05-7.16248E+03 2.53315E+05
 -1       102 7.48600E+06-6.93966E+05-1.94593E+05-1.91820E+05-1.09499E+04 2.97827E+05
 -1       103 9.80231E+06-8.26730E+05-1.96005E+05-1.04535E+05-1.12923E+05 3.44411E+05
 -1       104 1.41589E+07 1.16393E+06 9.92234E+05-7.03531E+05 8.25438E+04-1.33522E+06
 -1       105 5.75150E+06-1.00862E+06-6.11346E+04 1.37229E+05 6.76542E+04 1.56827E+05
 -1       106 1.06551E+07-1.10816E+06-6.15312E+05 1.07840E+05 2.27848E+04 4.35596E+05
 -1       107 9.97982E+06-1.37573E+06-4.18141E+05-1.48734E+05 3.69139E+04 4.47532E+05
 -1       108 1.18383E+07-1.21966E+06-6.59198E+05 1.36750E+05-3.78533E+04 4.84412E+05
 -1       109 1.77430E+07 2.29699E+06 1.72172E+06 2.10157E+06 2.64789E+05 1.95307E+06
 -1       110 1.61110E+07 2.94609E+06 1.70976E+06 7.88122E+05 8.42947E+04 2.60056E+06
 -1       111 1.61504E+07 3.10672E+06 2.41237E+06-2.85252E+05-1.00340E+05 2.55853E+06
 -1       112 1.32743E+07 3.47516E+05-2.56600E+05-4.17991E+05 3.90411E+04 1.52960E+06
 -1       113 8.71515E+06-1.05532E+06-2.55962E+05-2.57146E+04-5.71741E+04-4.17024E+05
 -1       114 1.20754E+07-1.40780E+06-1.18571E+06 4.03632E+05-5.01793E+05-5.66077E+05
 -1       115 3.60539E+06-2.99215E+05-2.08611E+03 1.35511E+05-1.76801E+04-5.00590E+04
 -1       116 3.50877E+06-3.15541E+05-2.72309E+04-1.36176E+05 2.18023E+04-6.38167E+04
 -1       117 4.43153E+06-8.96577E+05-7.47748E+04-1.50865E+05 1.96852E+04-1.32232E+05
 -1       118 4.56171E+06-9.40220E+05-7.39242E+04-1.34035E+04 5.24652E+04-1.43069E+05
 -1       119 7.86038E+06-6.61769E+05-7.52240E+04-2.57644E+05 1.87781E+04-2.35942E+05
 -1       120 9.85163E+06-8.37533E+05-8.02023E+04-1.87542E+05 4.54559E+04-1.01296E+05
 -1       121 1.17205E+07-7.44592E+05-1.14835E+04 2.84352E+04-6.58654E+04-3.65258E+05
 -1       122 1.46212E+07 1.38587E+06 8.63461E+05-6.05399E+05-6.75295E+04 1.64959E+06
 -1       123 5.58310E+06-1.15173E+06-1.08911E+05 1.60726E+05-8.70686E+03-3.13959E+05
 -1       124 1.09205E+07-1.05591E+06-2.43994E+05 2.44302E+05-4.64763E+03-1.80868E+05
 -1       125 1.35243E+07-1.00065E+06-1.18589E+06 7.82757E+04-1.55358E+05-7.96228E+03
 -1       126 9.79960E+06-1.44779E+06-3.27203E+05 3.25513E+04-9.82293E+03-4.52490E+05
 -1       127 1.38299E+07 2.35862E+05 8.27597E+05-1.41112E+06 1.23469E+05 1.96375E+05
 -1       128 1.11665E+07-2.23829E+05-7.71520E+05 4.64173E+05-1.01764E+05-8.29828E+04
 -1       129 8.61415E+06-1.93287E+05-8.69137E+05 3.51723E+05-5.46481E+04-3.04243E+04
 -1       130 3.58274E+06 1.02263E+04-3.39032E+05 4.17835E+04-2.55551E+04-1.27439E+05
 -1       131 3.62383E+06 3.27112E+04-8.39493E+05 9.46410E+04 1.85072E+03 1.00296E+05
 -1       132 3.46722E+06-5.04958E+04-8.21070E+05 1.22409E+05 1.32284E+04 1.98694E+05
 -1       133 3.37057E+06-4.93190E+04-3.64255E+05 1.01581E+05 2.82488E+04 1.57632E+05
 -1       134 1.35951E+07 4.32756E+04 5.08303E+05-1.81294E+06 9.28624E+04-5.34805E+05
 -1       135 9.68790E+06-2.94188E+05-7.50546E+05 2.87314E+05 2.83140E+04-2.49471E+04
 -1       136 1.26480E+07-1.26462E+06-1.04744E+06 3.74886E+05 5.04010E+05 1.73590E+05
 -1       137 1.48719E+07 1.06095E+06 1.59403E+06-1.99566E+06-1.46787E+05-8.31917E+05
 -1       138 1.51956E+07 8.23718E+05 1.59334E+06-1.53089E+06-3.04613E+05 1.83387E+05
 -1       139 5.27882E+06-1.14847E+05-1.14885E+06 2.79603E+05 3.08166E+04-1.39457E+05
 -1       140 6.81639E+06-8.50775E+04-6.10878E+05 3.08782E+05 8.69167E+04 2.75446E+05
 -1       141 1.41184E+07 1.05708E+06 1.14578E+06-1.32345E+06-1.80387E+05 7.76853E+05
 -1       142 1.24270E+07-1.54763E+06-1.33550E+06 5.06767E+05 2.57208E+04 5.61320E+04
 -1       143 9.66962E+06-3.89412E+05-1.29055E+06 2.53335E+05 5.28257E+04 1.23012E+05
 -1       144 8.47140E+06-8.90442E+04-1.49885E+06 3.62271E+05 4.66836E+04 9.15084E+04
 -1       145 1.65863E+07 7.75407E+05 1.10559E+06 1.47320E+06 2.95038E+05 1.56543E+06
 -1       146 1.12227E+07-5.91122E+05-5.82464E+05-4.64815E+05 1.86726E+05-1.35278E+05
 -1       147 9.18395E+06-1.23202E+05-7.49046E+05-5.32981E+04 7.52523E+04-1.00195E+05
 -1       148 3.56731E+06 6.40526E+04-3.26523E+05-5.89246E+04 8.75302E+03-9.92346E+04
 -1       149 3.81666E+06-4.25114E+04-8.41791E+05-1.67815E+05 4.31833E+04 6.65406E+04
 -1       150 3.80541E+06-4.90059E+04-9.31171E+05-1.34714E+05 1.93491E+04-3.53663E+04
 -1       151 3.42799E+06-2.54342E+04-3.45508E+05-1.17073E+05-3.48668E+04 1.49224E+05
 -1       152 1.34978E+07 3.67088E+05 1.41302E+06 8.55496E+05 3.16774E+05-7.89290E+05
 -1       153 1.26298E+07-2.87585E+05-5.19826E+05-3.16468E+05-3.01519E+05-2.12197E+05
 -1       154 9.53008E+06-2.92144E+05-9.03652E+05-2.35117E+05-6.49374E+04-1.46575E+04
 -1       155 1.51613E+07 1.17516E+06 1.87628E+06 1.98163E+06 8.97596E+04-7.55207E+05
 -1       156 1.53453E+07 1.21159E+06 2.03993E+06 1.99235E+06-3.12420E+04 2.67857E+05
 -1       157 7.03365E+06-4.17217E+03-7.38288E+05-2.15633E+05-3.00276E+04-1.96650E+05
 -1       158 6.95249E+06-6.14792E+04-7.74019E+05-2.38056E+05-2.53405E+04 1.84176E+05
 -1       159 1.54528E+07 1.68103E+06 2.24367E+06 1.91438E+06-6.37812E+04 9.06872E+05
 -1       160 1.37606E+07-1.31960E+06-7.96831E+05-1.95376E+05 7.39904E+04-1.77415E+04
 -1       161 1.01101E+07-1.16813E+05-1.39663E+06-2.70564E+05 5.73891E+04-1.56617E+05
 -1       162 1.00464E+07-3.87735E+05-1.46901E+06-3.34250E+05-6.04656E+04 1.28978E+05
 -1       163 1.62159E+05-2.03174E+05-2.72537E+05-8.63599E+03-2.79962E+04 3.83935E+03
 -1       164 2.51409E+05-2.70153E+05-5.77500E+05-6.43268E+04 1.33690E+04-8.71288E+04
 -1       165 9.26521E+04-3.36486E+05-6.00708E+05-6.43019E+04-8.59290E+03-1.69008E+04
 -1       166 9.03479E+04-2.14275E+05-1.90693E+05-2.06963E+04 6.59830E+04 2.93712E+04
 -1       167-2.98758E+04-5.60695E+05-1.47676E+05-5.18138E+04 9.73116E+03 1.96768E+04
 -1       168-8.81150E+04-6.21366E+05-1.65485E+05 1.73312E+04 7.83084E+03 3.47235E+04
 -1       169 2.43990E+05-2.96027E+05-1.92679E+05 4.65231E+03-9.15368E+04 4.29786E+04
 -1       170 4.69289E+04-2.23691E+05-2.49153E+05 2.76022E+04 4.66170E+04-2.65682E+04
 -1       171 1.55015E+05-2.83067E+05-6.05236E+05 5.42394E+04-2.42654E+04 4.57036E+04
 -1       172 1.17925E+05-2.47534E+05-6.26402E+05 4.41524E+04-5.14878E+04-9.35577E+04
 -1       173-6.67517E+04-5.87327E+05-4.38180E+05 9.78109E+04 4.52254E+03-3.38755E+04
 -1       174 1.35084E+05-6.03869E+05-3.20556E+05 2.07961E+04-3.50741E+04-5.14371E+04
 -1       175 2.43905E+05-5.58048E+05-3.06391E+05-9.93368E+04-2.44982E+04-3.49506E+04
 -1       176-3.93918E+04-3.39022E+05-4.93680E+05-2.88838E+04 4.54133E+03 6.33780E+04
 -1       177 6.93547E+04-7.37050E+05-6.94638E+05-6.16904E+04 3.04370E+04-3.52165E+04
 -1       178 5.52962E+04-6.59624E+05-3.71022E+05 2.22532E+04-4.22360E+03 5.01281E+04
 -1       179 6.65541E+04-7.12829E+05-7.04556E+05 5.10096E+04 1.41024E+04 4.19182E+04
 -1       180 1.08389E+05-7.02635E+05-7.93538E+05-2.57764E+04 4.87093E+04-3.53030E+04
 -1       181 1.63728E+07 7.01696E+06 7.01696E+06 2.42629E+06-9.93632E-01 3.71375E+06
 -1       182 1.65480E+07 7.09201E+06 7.09200E+06 3.37870E+06-1.59787E+00-4.18554E+05
 -1       183 1.64822E+07 6.83005E+06 6.50846E+06 3.28564E+06 2.26687E+05 1.33680E+06
 -1       184 1.69400E+07 7.26002E+06 7.26003E+06 2.47049E+06 5.77902E-01-3.86192E+06
 -1       185 1.73008E+07 7.41467E+06 7.41468E+06 1.35451E+06 7.64313E-02-4.24200E+06
 -1       186 1.58992E+07 6.51213E+06 6.01399E+06 7.67928E+04 2.66288E+05-3.09565E+06
 -1       187 1.73518E+07 7.00311E+06 6.52752E+06-3.45727E+06-3.47858E+05-2.72736E+06
 -1       188 1.71022E+07 6.56690E+06 6.72030E+06-2.54556E+06 3.77281E+05 3.18519E+06
 -1       189 1.75979E+07 6.78756E+06 6.42724E+06-3.10435E+06-4.75546E+05 9.33211E+05
 -1       190 1.65544E+07 7.09475E+06 7.09475E+06-3.56621E+06 1.71831E+00-9.23233E+05
 -1       191 1.62764E+07 6.55481E+06 6.85439E+06-1.16845E+06-2.71012E+04 2.65416E+06
 -1       192 1.59824E+07 6.84962E+06 6.84963E+06 1.14080E+06-1.73964E-01 3.49780E+06
 -1       193 1.58075E+07 6.76260E+06 6.34106E+06 3.10638E+06-2.24876E+05-2.00939E+06
 -1       194 1.54309E+07 5.85203E+06 6.37925E+06-1.57456E+06-6.51070E+04-1.74380E+06
 -1       195 1.57112E+07 6.73340E+06 6.73340E+06 1.35733E+05-5.37720E-01 3.21353E+06
 -1       196 1.47713E+07 6.30542E+06 6.03838E+06-6.89383E+04 1.52559E+03 6.71895E+05
 -1       197 1.50269E+07 5.89687E+06 6.27844E+06 1.44976E+06 2.69762E+04-5.36850E+05
 -1       198 1.54083E+07 6.60358E+06 6.60357E+06-5.35396E+04 1.21619E+00-8.90517E+05
 -1       199 7.56820E+06-5.83642E+05-4.78125E+05-2.52395E+05-6.48661E+04 2.37005E+05
 -1       200 3.95579E+06-8.25396E+05-4.42665E+05-1.09853E+05 1.71600E+04 1.36215E+05
 -1       201 8.56291E+06-1.30926E+06-5.92474E+05-1.34274E+05-9.27666E+04 3.45822E+05
 -1       202 3.93787E+06-5.86972E+05-7.39700E+05-1.15536E+05-5.32445E+02 1.82688E+05
 -1       203 3.93321E+06-9.12349E+05-7.29327E+05-5.84754E+04-7.16368E+03 2.01622E+05
 -1       204 4.77001E+06-9.15296E+05-4.66121E+05-1.52696E+05 4.24688E+04-1.83880E+05
 -1       205 4.56416E+06-5.40765E+05-3.82551E+05-1.37740E+05 2.18304E+04-1.66559E+05
 -1       206 4.04141E+06-4.54747E+05-7.96972E+05 8.59734E+04-2.28869E+04-1.66863E+05
 -1       207 4.06240E+06-7.44901E+05-4.69626E+05 1.89829E+05 9.35948E+03-1.22260E+05
 -1       208 3.99887E+06-8.67460E+05-9.73318E+05 1.53207E+05-7.65790E+03-1.45903E+05
 -1       209 1.21655E+07-7.56033E+05-8.62507E+05 5.55628E+03 3.21263E+04 6.21446E+04
 -1       210 8.58065E+06-1.07509E+06-9.41506E+05 6.27438E+04-7.22723E+04 1.34878E+05
 -1       211 1.13544E+07-8.80923E+05-9.36518E+05 1.33211E+05 5.97781E+03 1.15326E+05
 -1       212 1.25753E+07-4.78475E+05-5.96782E+05-1.49630E+04-2.70286E+04 6.07292E+04
 -1       213 1.56355E+07 1.68008E+05-3.28295E+05-1.02676E+05 8.95174E+04-7.21838E+04
 -1       214 1.11874E+07-8.50403E+05-9.70678E+05 2.82274E+05 3.31702E+04 7.22503E+04
 -1       215 1.43379E+07-3.53187E+05-3.58425E+05 6.45554E+04-7.42684E+04 3.10545E+04
 -1       216 1.58791E+07 4.72603E+04-1.16397E+05 2.04821E+05-3.01180E+04-1.68969E+05
 -1       217 1.04250E+07-1.08566E+06-9.75830E+05-1.48201E+05-3.80946E+03 8.48573E+04
 -1       218 1.14365E+07-9.47678E+05-1.00012E+06-2.95723E+05-6.78579E+04 1.39834E+05
 -1       219 1.31872E+07-8.06312E+05-9.13443E+05-2.58117E+05-5.52908E+04-7.31021E+03
 -1       220 1.04495E+07-9.54333E+05-1.11167E+06-6.42360E+04 1.61501E+04-1.26835E+05
 -1       221 1.44941E+07-1.31091E+04-1.34328E+05 7.00539E+04 2.44931E+03 1.57470E+05
 -1       222 9.59458E+06-9.60205E+05-1.50830E+06 4.04846E+05-3.69847E+04-8.82079E+04
 -1       223 1.47753E+07 7.91331E+05 1.12719E+06-1.22818E+06 5.81751E+04 5.71718E+05
 -1       224 1.22673E+07-1.22043E+06-1.14042E+06 3.28636E+05 1.18021E+05-1.22165E+05
 -1       225 1.00775E+07-1.25695E+06-9.78718E+05 1.10035E+05-4.67536E+04-4.34113E+05
 -1       226 7.47767E+06-5.23130E+05-5.76808E+05 2.17922E+05-9.63807E+04-2.25690E+05
 -1       227 1.39615E+07-7.88701E+05-9.88003E+05 1.73467E+03-1.49471E+05 1.46943E+05
 -1       228 1.49715E+07-3.18801E+05 5.66293E+03-7.11277E+04-1.52580E+05 7.64494E+04
 -1       229 1.22716E+07-1.06309E+06-9.69164E+05-1.45187E+05-9.52093E+04-3.21722E+05
 -1       230 1.07450E+07-1.10893E+06-6.29735E+05-2.54475E+05 1.36173E+04-2.49638E+05
 -1       231 1.34352E+07-4.63947E+05-6.41598E+05 1.62263E+05 7.64394E+03-9.84355E+04
 -1       232 7.73020E+06-4.85930E+05-1.12568E+06 2.69597E+05 1.16552E+04 1.16031E+05
 -1       233 1.12314E+07-7.05700E+05-5.37495E+05-2.27399E+05 1.31590E+05-1.12430E+05
 -1       234 8.50519E+06-6.28270E+05-7.01506E+05-3.01059E+05 4.96509E+04-2.19653E+05
 -1       235 1.31714E+07-6.83044E+05-9.15642E+05-1.96327E+05 3.39902E+04-1.01187E+05
 -1       236 9.97543E+06-6.23745E+05-1.27492E+06-2.42602E+05-2.91393E+04-7.78982E+04
 -1       237 4.15761E+06-9.42470E+05-9.31532E+05 3.26261E+04 2.20507E+04-1.51114E+05
 -1       238 8.70645E+06-1.09301E+06-6.00752E+05 2.32000E+03 7.64248E+04-2.95106E+05
 -1       239 1.45188E+07 1.66306E+06 2.02432E+06 8.71268E+05-4.68449E+04 7.75314E+05
 -1       240 1.43154E+07 1.17450E+06 1.75020E+06 8.41469E+05-6.19166E+04 8.96547E+04
 -1       241 3.68627E+06-3.34435E+05-4.70596E+05 1.70659E+05-1.82923E+04 1.67435E+05
 -1       242 3.76833E+06-3.87761E+05-9.19537E+05 2.00561E+05 1.14900E+04 9.83045E+04
 -1       243 7.92450E+06-6.32289E+05-9.19592E+05 2.03305E+05 7.11051E+03 2.78862E+05
 -1       244 4.10768E+06-8.96280E+05-4.53249E+05 3.46255E+04-6.25894E+03 1.36614E+05
 -1       245 4.07562E+06-9.65726E+05-8.80592E+05 8.11139E+03-2.33120E+04 1.69449E+05
 -1       246 1.40905E+07 2.05722E+06 1.00880E+06 9.03285E+05-8.29280E+04-1.06370E+06
 -1       247 1.57040E+07 3.45826E+05 1.09280E+05 3.64475E+05-1.73978E+05-2.90272E+05
 -1       248 1.50679E+07 2.33660E+06 2.43371E+06 5.75318E+05 5.88983E+04-1.02543E+06
 -1       249 1.61904E+07 2.42000E+06 1.98605E+06-5.59783E+05 1.95850E+05-1.82074E+06
 -1       250 1.57427E+07 1.96160E+06 1.89560E+06 2.04264E+06 6.58340E+04-1.04450E+06
 -1       251 4.15595E+06-9.52156E+05-8.79153E+05-1.36903E+05-2.53608E+04 8.66654E+04
 -1       252 6.07837E+06-9.52977E+05-1.01507E+06-2.22491E+05-1.03346E+04-1.16630E+05
 -1       253 1.55024E+07 3.08099E+05 4.09598E+05 2.44886E+05-1.90462E+04 1.62096E+05
 -1       254 1.58097E+07 3.08278E+05 3.81188E+05 3.09983E+05-1.44539E+03 4.04799E+05
 -1       255 1.29022E+07-7.98013E+05-5.89406E+05-1.45768E+04 6.37464E+04 2.13237E+05
 -1       256 1.17178E+07-8.54775E+05-5.56333E+05-2.64447E+05-7.65254E+04 2.24525E+04
 -1       257 1.54018E+07 2.16654E+06 2.35515E+06-5.70434E+05 1.59766E+05-1.26243E+05
 -1       258 1.52465E+07 2.30584E+06 2.65394E+06 5.62553E+05 2.35771E+04 3.20213E+05
 -1       259 1.44453E+07 1.45042E+06 1.95040E+06 9.37918E+05 2.49790E+04-9.74327E+05
 -1       260 1.52904E+07 1.45910E+06 1.18063E+06-7.66449E+05-6.48710E+04-1.61736E+06
 -1       261 1.38985E+07-4.21748E+05-3.78485E+05 6.54947E+04-4.62359E+04 1.55493E+05
 -1       262 1.48947E+07-5.58941E+05-3.13905E+05 1.58570E+05 3.50180E+04-3.64484E+05
 -1       263 8.11185E+06-5.98883E+05-1.03458E+06-2.83166E+05 3.54703E+03 1.62304E+05
 -1       264 4.09126E+06-4.01220E+05-9.38516E+05-1.97506E+05 3.73777E+04-7.61560E+04
 -1       265 1.46912E+07 1.14526E+06 1.31267E+06-5.22491E+05 5.01478E+04 3.11106E+05
 -1       266 1.52390E+07 2.66294E+06 2.31461E+06-1.94864E+05 2.04661E+05 7.57253E+05
 -1       267 1.38969E+07 1.27576E+06 1.18992E+06-6.57005E+05-5.25047E+04 1.02908E+04
 -1       268 1.45135E+07 1.19809E+06 1.25898E+06-9.03417E+05-3.92903E+04-4.20453E+05
 -1       269 7.60335E+06-6.62798E+05-4.97682E+05 1.67154E+05 5.02124E+04 2.69697E+05
 -1       270 1.49301E+07 2.49221E+06 1.83414E+06 9.54151E+05 1.45240E+05 1.01162E+06
 -1       271 1.27948E+07-4.38253E+05-3.05941E+05 5.44409E+01 4.52350E+04 6.94219E+04
 -1       272 1.54086E+07 2.43510E+06 1.52451E+06 2.16821E+06 1.54220E+05 9.51656E+05
 -1       273 1.00936E+07-1.20152E+06-5.96012E+05-1.91208E+04 4.49077E+04 3.17493E+05
 -3
    1PSTEP                        12           1           1          
    1PGM                1.000000E+00                                  
    1PGK                6.536643E+11                                  
    1PHID                         -1                                  
    1PSUBC                         0                                  
    1PMODE                         4                                  
  100CL  104 1.28676E+05         273                     2    4MODAL      1
 -4  TOSTRAIN    6    1
 -5  EXX         1    4    1    1
 -5  EYY         1    4    2    2
 -5  EZZ         1    4    3    3
 -5  EXY         1    4    1    2
 -5  EYZ         1    4    2    3
 -5  EZX         1    4    3    1
 -1         1-6.11177E-01 3.66358E-01 4.07066E-01 1.39698E-01 3.96702E-01-9.32431E-02
 -1         2-5.52568E-01 5.15908E-02 5.01268E-01 3.55427E-01-1.98021E-01-6.97493E-02
 -1         3-4.87458E-01 4.63449E-01 1.05228E-01 7.42570E-02-1.92592E-01-2.35731E-01
 -1         4-4.51686E-01 4.23377E-01 3.59030E-01 7.21064E-03 3.65878E-01-6.75359E-02
 -1         5 9.04535E+01 1.18342E-04 1.17210E-04-3.34993E+01-1.20145E-05 3.49613E+01
 -1         6 9.18820E+01 1.15058E-04 1.22452E-04-3.59971E+01 8.38112E-06-3.51514E+01
 -1         7 8.89013E+01-1.27674E+01-9.86640E+00 2.56873E+01 3.95407E+00 2.71022E+01
 -1         8 8.21312E+01-8.73242E+00 1.36637E-04 2.64950E+01-1.69040E+00-3.27561E+01
 -1         9 7.59456E+01 6.39404E-05 1.35242E-04 9.63833E+00 4.96804E-07-3.99147E+01
 -1        10 6.94988E+01-4.13877E+00-8.98976E+00-9.18758E+00 3.46521E-01-2.45371E+01
 -1        11 6.05615E+01-2.71781E+01-2.65045E+01 6.07037E+00 2.37483E+00 4.82951E+00
 -1        12 3.23636E+01-1.01714E+01-1.02238E+01 1.64861E+00 4.04066E-01 1.68843E+00
 -1        13 6.69746E-01-2.49377E+00 1.18351E+00-6.25314E-01 4.05123E-01-1.41081E-01
 -1        14 1.68301E+00-3.42113E+00 9.82322E-01 4.45029E-01-2.79875E-01-5.80453E-02
 -1        15 5.30349E+01-1.90861E+01-1.96298E+01-5.88643E+00-1.07597E+00 4.41248E-01
 -1        16 3.23810E+01-9.85885E+00-1.04985E+01-1.43338E+00-4.00269E-01 1.37166E+00
 -1        17 6.70932E+01 6.57100E-05 1.09712E-04 6.77300E+00-3.00014E-06 3.65879E+01
 -1        18 6.47874E+01-1.10422E+00-2.08911E+00-8.47026E+00 2.99333E-01 2.99137E+01
 -1        19 6.04716E+01-2.62051E+01-2.61673E+01 4.19058E+00-1.92066E+00-6.35380E+00
 -1        20 3.34711E+01-1.02966E+01-1.05281E+01 7.80709E-01-1.87453E-01-9.28405E-01
 -1        21 1.14278E+00-2.68582E+00 8.97023E-01-4.96451E-01-2.72805E-01 1.52243E-01
 -1        22 1.34917E+00-2.95117E+00 1.00135E+00 8.98992E-01 1.72004E-01 4.95877E-02
 -1        23 5.01400E+01-1.77480E+01-1.46807E+01-2.61496E+00 4.49820E-01-1.92897E+00
 -1        24 3.27295E+01-1.00157E+01-1.02779E+01-9.34438E-01-4.14655E-02-1.28466E+00
 -1        25 1.43106E+00 1.08339E+00-3.04987E+00-2.97603E-01 8.90016E-02-6.36546E-01
 -1        26 1.12822E+00 8.49550E-01-2.58980E+00-1.34157E-01-3.72500E-01 7.23691E-01
 -1        27 7.03534E+01-6.72718E+00-3.96284E+00-2.43334E+01-7.92464E-01 1.02247E+01
 -1        28 6.57565E+01-1.44690E+00-1.16856E+00-3.23184E+01-1.31850E+00-1.07727E+01
 -1        29 1.35528E+00 1.23991E+00-3.20491E+00 1.39045E-01-3.16124E-02-2.25145E-01
 -1        30 7.47660E-01 9.12251E-01-2.55118E+00-1.20485E-01 2.04915E-01 5.51663E-01
 -1        31 6.57183E+01-2.09020E+00-1.67072E+00 2.87310E+01 1.58180E+00 1.05995E+01
 -1        32 6.83132E+01-6.19803E+00-2.70490E+00 2.73557E+01 6.08408E-01-1.04276E+01
 -1        33 7.33710E+01-2.25220E+01-2.94925E+01 2.80029E+00-6.28470E-01 4.79653E-01
 -1        34 5.91759E+01-2.33115E+01-1.70699E+01-1.80655E-01-2.23802E-02 3.41203E+00
 -1        35 4.58559E+01-1.96277E+01-1.26926E+01-1.34382E+00-1.01854E-01 2.95909E+00
 -1        36 7.61103E+01-2.25568E+01-2.81090E+01 3.14381E+00 2.60281E-02 1.69019E+00
 -1        37 6.70135E+01-2.60821E+01-2.28244E+01 8.06733E-01-5.58352E-01-2.99693E+00
 -1        38 4.72296E+01-1.96803E+01-1.24928E+01-1.53172E+00 3.46075E-01-1.78482E+00
 -1        39 6.01695E+01-1.95328E+01-2.33909E+01 3.45042E+00 4.12436E-01 6.66861E-01
 -1        40 3.71240E+01-9.16431E+00-1.61404E+01 1.83491E+00 2.65238E-01 1.87077E+00
 -1        41 7.29660E+01-2.56220E+01-2.59293E+01 1.77871E+00 4.56112E-01-6.52664E-01
 -1        42 6.96576E+01-2.31562E+01-2.39528E+01-1.84732E+00-1.35865E-01 5.43001E-01
 -1        43 4.02042E+01-1.00053E+01-1.79523E+01-1.88378E+00 6.89383E-02-1.43778E-01
 -1        44 7.40983E+01-2.63996E+01-2.49374E+01-1.37996E+00-2.34193E-01-1.19198E+00
 -1        45 3.75489E+00-2.96025E+00-3.09459E+00-7.74324E-01 2.46158E-02-6.17218E-01
 -1        46 2.00965E+00-2.83643E+00-1.52573E+00-1.10390E-01 2.77907E-02 4.37073E-01
 -1        47 3.11651E+00-2.41242E+00-3.33998E+00 5.09819E-01-1.17727E-02-1.77527E-01
 -1        48 5.66387E+01-2.25503E+00-2.02719E+00 9.64960E+00 3.66168E-01 6.42552E+00
 -1        49 5.50291E+01-1.29024E+00-1.64312E+00 8.79644E+00-1.70655E-01-1.32475E+01
 -1        50 6.10656E+01-3.57373E+00-3.93437E+00-1.01028E+01 5.28662E-02 9.10657E-01
 -1        51 4.52275E+01-1.61425E+01-1.68083E+01 1.44234E+00-1.37890E-01-1.09618E+00
 -1        52 4.53075E+01-1.73349E+01-1.54219E+01-6.30166E-01-2.19601E-01 1.87133E+00
 -1        53 6.53600E+01-2.19380E+01-2.26597E+01-1.39311E+00-2.91002E-01-9.14006E-01
 -1        54 8.06589E+01-2.32969E+01-2.39909E+01 6.10481E-01 1.32121E-01-7.04360E-01
 -1        55 7.46053E+01 6.48624E-05 1.36716E-04 1.68923E+01 9.23605E-06-3.74441E+01
 -1        56 7.72023E+01 6.30184E-05 1.33768E-04 2.56908E+00-8.24244E-06-3.84888E+01
 -1        57 8.33431E+01 1.15058E-04 1.22452E-04-2.49122E+01 8.38112E-06-3.40453E+01
 -1        58 7.66958E+01-2.10130E+01-2.23635E+01-1.09976E+01-1.53065E+00-1.10774E+01
 -1        59 3.80750E+01-1.13652E+01-1.45013E+01 2.62504E+00 9.40322E-01 3.87909E+00
 -1        60 1.60196E+01-5.01563E+00-4.99130E+00 9.46555E-01 4.40991E-01 6.75745E-01
 -1        61 7.18189E-01-1.12440E+00 3.96009E-01-3.81375E-01 5.62621E-01 1.09306E-02
 -1        62 6.64289E-01-2.42885E+00 1.31692E+00-7.82855E-02 2.30523E-01-6.18069E-01
 -1        63 1.09643E+00-1.69409E+00 5.16786E-01 4.07950E-01-4.69994E-01-1.22276E-01
 -1        64 7.35508E+01-2.43639E+01-1.37470E+01 8.26870E+00-9.48234E-01-1.26449E+01
 -1        65 3.97968E+01-1.24249E+01-1.37600E+01-5.34677E-01-7.70913E-01 2.40955E+00
 -1        66 1.61354E+01-5.16005E+00-4.93774E+00-6.71512E-01-5.76854E-01 5.58531E-01
 -1        67 7.14874E+01 6.77817E-05 1.10449E-04 1.45192E+01-6.73888E-06 3.63423E+01
 -1        68 6.60860E+01 6.00687E-05 1.08682E-04 2.40077E-01 3.91681E-06 3.47401E+01
 -1        69 7.78132E+01 1.18342E-04 1.17210E-04-2.18005E+01-1.20145E-05 3.40775E+01
 -1        70 7.71558E+01-2.16129E+01-2.14061E+01-1.15517E+01 2.19420E+00 1.01150E+01
 -1        71 3.82482E+01-1.26408E+01-1.19005E+01 2.65410E+00-1.07353E+00-1.66113E+00
 -1        72 1.70917E+01-5.26168E+00-5.31041E+00 4.92754E-01-4.22182E-01-5.51714E-01
 -1        73 6.23879E-01-1.03843E+00 3.59859E-01-2.41930E-01-2.39473E-01 1.01675E-01
 -1        74 1.06524E+00-2.46849E+00 1.00597E+00-5.02103E-02-3.24793E-01-3.75007E-01
 -1        75 6.62250E-01-1.23408E+00 4.74964E-01 4.94354E-01 5.19967E-01 7.64128E-02
 -1        76 7.43204E+01-1.87110E+01-2.20241E+01 8.81658E+00 9.78665E-01 8.83507E+00
 -1        77 4.05266E+01-1.31785E+01-1.24347E+01-4.21959E-01-5.83193E-03-1.06824E+00
 -1        78 1.69558E+01-5.34240E+00-5.17028E+00-5.50160E-01 1.70915E-01-7.61954E-01
 -1        79 7.54571E-01 4.63739E-01-1.33345E+00-8.91991E-02 4.82829E-01-4.11511E-01
 -1        80 7.89333E-01 1.17394E+00-2.50000E+00 1.13895E-01-4.21087E-01 3.59104E-01
 -1        81 8.14888E-01 2.66181E-01-1.11775E+00 4.23719E-03-3.86441E-01 3.31170E-01
 -1        82 8.16673E+01 1.18342E-04 1.17210E-04-3.21299E+01-1.20145E-05 2.43237E+01
 -1        83 6.93376E+01 1.06013E-04 9.38241E-05-3.16533E+01 2.56032E-05-2.28858E+00
 -1        84 7.97459E+01 1.15058E-04 1.22452E-04-3.55178E+01 8.38112E-06-2.40380E+01
 -1        85 1.01877E+00 5.66957E-01-1.62581E+00 3.02352E-01-2.12616E-01-3.23370E-01
 -1        86 2.43072E-01 1.14404E+00-2.27462E+00-3.30865E-01 6.55101E-02 1.36952E-01
 -1        87 8.24121E-01 4.58251E-01-1.22434E+00 8.47722E-02 5.12450E-01 3.46914E-01
 -1        88 7.16508E+01-7.60085E+00 1.50778E-04 2.60524E+01 2.90863E+00 2.00754E+01
 -1        89 6.95508E+01 1.05642E-04 8.17601E-05 3.22633E+01-8.09811E-06-1.51315E+00
 -1        90 7.80999E+01-1.12299E+01 1.36598E-04 2.64303E+01-8.98454E-01-2.26260E+01
 -1        91 7.79954E+01-1.61977E+01-2.03717E+01 1.45206E+01-1.57522E+00-1.40048E+01
 -1        92 6.28597E+01-2.09000E+01-2.33140E+01-2.43546E+00-1.10125E+00-8.82647E-01
 -1        93 7.36620E+01-1.16774E+01-2.46992E+01 6.55059E+00-9.07313E-02-1.45550E+01
 -1        94 7.36106E+01-1.24466E+01-2.21265E+01-1.65325E+00 1.71266E+00-1.26509E+01
 -1        95 6.87696E+01-1.75522E+01-2.09780E+01-2.02876E+00-2.62307E-01-1.03020E+01
 -1        96 5.67196E+01-2.00081E+01-1.77745E+01 7.39376E-01 4.52628E-01 4.04817E+00
 -1        97 4.56239E+01-1.69292E+01-1.28513E+01 5.37458E-01 6.19543E-02 2.04198E+00
 -1        98 1.78928E+01-6.94266E+00-4.91944E+00 1.01379E+00 1.14420E-02 9.19013E-01
 -1        99 1.74761E+01-6.60066E+00-4.66919E+00-1.19665E+00-2.11607E-01 7.40942E-01
 -1       100 2.30362E+01-1.17285E+01-5.30122E+00-3.22933E-01-1.49045E-01 1.13885E+00
 -1       101 2.17264E+01-1.09053E+01-5.16690E+00-1.05966E+00-4.65561E-02 1.64655E+00
 -1       102 3.87628E+01-1.44069E+01-1.11610E+01-1.24683E+00-7.11744E-02 1.93587E+00
 -1       103 5.05457E+01-1.85431E+01-1.44434E+01-6.79475E-01-7.34001E-01 2.23867E+00
 -1       104 6.75600E+01-1.69070E+01-1.80230E+01-4.57295E+00 5.36535E-01-8.67894E+00
 -1       105 3.03621E+01-1.35786E+01-7.41999E+00 8.91989E-01 4.39752E-01 1.01938E+00
 -1       106 5.58608E+01-2.06005E+01-1.73970E+01 7.00960E-01 1.48101E-01 2.83137E+00
 -1       107 5.25899E+01-2.12211E+01-1.49968E+01-9.66773E-01 2.39941E-01 2.90896E+00
 -1       108 6.20097E+01-2.28669E+01-1.92239E+01 8.88876E-01-2.46046E-01 3.14868E+00
 -1       109 8.26871E+01-1.77122E+01-2.14514E+01 1.36602E+01 1.72113E+00 1.26950E+01
 -1       110 7.35710E+01-1.20006E+01-2.00367E+01 5.12279E+00 5.47916E-01 1.69036E+01
 -1       111 7.24734E+01-1.23106E+01-1.68239E+01-1.85414E+00-6.52207E-01 1.66304E+01
 -1       112 6.62349E+01-1.77889E+01-2.17157E+01-2.71694E+00 2.53767E-01 9.94240E+00
 -1       113 4.55427E+01-1.79654E+01-1.27696E+01-1.67145E-01-3.71632E-01-2.71066E+00
 -1       114 6.42673E+01-2.33735E+01-2.19299E+01 2.62361E+00-3.26165E+00-3.67950E+00
 -1       115 1.84789E+01-6.90103E+00-4.96969E+00 8.80821E-01-1.14921E-01-3.25383E-01
 -1       116 1.80580E+01-6.80001E+00-4.92599E+00-8.85145E-01 1.41715E-01-4.14809E-01
 -1       117 2.36147E+01-1.10180E+01-5.67631E+00-9.80625E-01 1.27954E-01-8.59509E-01
 -1       118 2.43298E+01-1.14328E+01-5.80185E+00-8.71228E-02 3.41024E-01-9.29947E-01
 -1       119 4.04074E+01-1.49866E+01-1.11740E+01-1.67468E+00 1.22057E-01-1.53362E+00
 -1       120 5.06347E+01-1.88448E+01-1.39222E+01-1.21902E+00 2.95463E-01-6.58423E-01
 -1       121 5.97367E+01-2.12865E+01-1.65213E+01 1.84829E-01-4.28125E-01-2.37418E+00
 -1       122 6.97320E+01-1.62977E+01-1.96933E+01-3.93510E+00-4.38942E-01 1.07223E+01
 -1       123 2.98064E+01-1.39699E+01-7.19161E+00 1.04472E+00-5.65946E-02-2.04073E+00
 -1       124 5.65522E+01-2.12943E+01-1.60168E+01 1.58797E+00-3.02096E-02-1.17564E+00
 -1       125 7.09014E+01-2.35109E+01-2.47150E+01 5.08792E-01-1.00983E+00-5.17549E-02
 -1       126 5.16605E+01-2.14475E+01-1.41637E+01 2.11584E-01-6.38491E-02-2.94118E+00
 -1       127 6.75543E+01-2.08069E+01-1.69607E+01-9.17230E+00 8.02550E-01 1.27644E+00
 -1       128 5.73253E+01-1.67116E+01-2.02716E+01 3.01713E+00-6.61469E-01-5.39388E-01
 -1       129 4.46644E+01-1.25840E+01-1.69770E+01 2.28620E+00-3.55213E-01-1.97758E-01
 -1       130 1.84069E+01-4.81443E+00-7.08460E+00 2.71593E-01-1.66108E-01-8.28355E-01
 -1       131 1.93293E+01-4.01294E+00-9.68227E+00 6.15167E-01 1.20297E-02 6.51921E-01
 -1       132 1.86435E+01-4.22171E+00-9.23044E+00 7.95658E-01 8.59848E-02 1.29151E+00
 -1       133 1.74732E+01-4.75607E+00-6.80315E+00 6.60276E-01 1.83617E-01 1.02461E+00
 -1       134 6.71479E+01-2.09387E+01-1.79160E+01-1.17841E+01 6.03605E-01-3.47623E+00
 -1       135 5.00066E+01-1.48770E+01-1.78433E+01 1.86754E+00 1.84041E-01-1.62156E-01
 -1       136 6.67082E+01-2.37240E+01-2.23123E+01 2.43676E+00 3.27607E+00 1.12833E+00
 -1       137 7.03769E+01-1.93941E+01-1.59291E+01-1.29718E+01-9.54113E-01-5.40746E+00
 -1       138 7.23525E+01-2.10648E+01-1.60623E+01-9.95077E+00-1.97998E+00 1.19202E+00
 -1       139 2.82897E+01-6.76919E+00-1.34902E+01 1.81742E+00 2.00308E-01-9.06468E-01
 -1       140 3.51259E+01-9.73366E+00-1.31514E+01 2.00708E+00 5.64958E-01 1.79040E+00
 -1       141 6.72877E+01-1.76109E+01-1.70343E+01-8.60239E+00-1.17252E+00 5.04954E+00
 -1       142 6.64598E+01-2.43754E+01-2.29966E+01 3.29399E+00 1.67185E-01 3.64858E-01
 -1       143 5.08681E+01-1.45157E+01-2.03731E+01 1.64667E+00 3.43367E-01 7.99575E-01
 -1       144 4.47388E+01-1.09040E+01-2.00678E+01 2.35476E+00 3.03443E-01 5.94805E-01
 -1       145 8.01101E+01-2.26608E+01-2.05146E+01 9.57583E+00 1.91775E+00 1.01753E+01
 -1       146 5.78739E+01-1.89160E+01-1.88597E+01-3.02130E+00 1.21372E+00-8.79306E-01
 -1       147 4.72281E+01-1.32684E+01-1.73364E+01-3.46438E-01 4.89140E-01-6.51269E-01
 -1       148 1.82303E+01-4.54092E+00-7.07966E+00-3.83010E-01 5.68947E-02-6.45025E-01
 -1       149 2.04097E+01-4.67486E+00-9.87017E+00-1.09080E+00 2.80691E-01 4.32514E-01
 -1       150 2.04973E+01-4.55639E+00-1.02905E+01-8.75644E-01 1.25769E-01-2.29881E-01
 -1       151 1.76964E+01-4.75089E+00-6.83137E+00-7.60974E-01-2.26634E-01 9.69958E-01
 -1       152 6.48190E+01-2.05308E+01-1.37323E+01 5.56072E+00 2.05903E+00-5.13038E+00
 -1       153 6.43601E+01-1.96029E+01-2.11124E+01-2.05704E+00-1.95987E+00-1.37928E+00
 -1       154 4.94441E+01-1.44004E+01-1.83752E+01-1.52826E+00-4.22093E-01-9.52735E-02
 -1       155 7.12296E+01-1.96806E+01-1.51234E+01 1.28806E+01 5.83437E-01-4.90885E+00
 -1       156 7.18490E+01-2.00198E+01-1.46356E+01 1.29503E+01-2.03073E-01 1.74107E+00
 -1       157 3.62819E+01-9.46391E+00-1.42357E+01-1.40161E+00-1.95179E-01-1.27823E+00
 -1       158 3.60157E+01-9.57511E+00-1.42066E+01-1.54736E+00-1.64713E-01 1.19715E+00
 -1       159 7.13768E+01-1.81395E+01-1.44823E+01 1.24435E+01-4.14578E-01 5.89467E+00
 -1       160 7.19778E+01-2.60437E+01-2.26457E+01-1.26994E+00 4.80938E-01-1.15320E-01
 -1       161 5.28206E+01-1.36542E+01-2.19730E+01-1.75867E+00 3.73029E-01-1.01801E+00
 -1       162 5.30172E+01-1.48048E+01-2.18331E+01-2.17262E+00-3.93026E-01 8.38359E-01
 -1       163 1.52436E+00-8.50303E-01-1.30116E+00-5.61339E-02-1.81976E-01 2.49557E-02
 -1       164 2.52852E+00-8.61630E-01-2.85938E+00-4.18124E-01 8.68983E-02-5.66337E-01
 -1       165 1.86905E+00-9.20346E-01-2.63779E+00-4.17962E-01-5.58539E-02-1.09855E-01
 -1       166 1.05919E+00-9.20857E-01-7.67574E-01-1.34526E-01 4.28890E-01 1.90913E-01
 -1       167 9.13177E-01-2.53715E+00 1.47476E-01-3.36790E-01 6.32525E-02 1.27899E-01
 -1       168 7.39701E-01-2.72643E+00 2.36799E-01 1.12653E-01 5.09005E-02 2.25703E-01
 -1       169 1.95301E+00-1.55710E+00-8.85339E-01 3.02400E-02-5.94989E-01 2.79361E-01
 -1       170 9.43911E-01-8.15121E-01-9.80622E-01 1.79414E-01 3.03011E-01-1.72693E-01
 -1       171 2.10753E+00-7.40005E-01-2.83410E+00 3.52556E-01-1.57725E-01 2.97074E-01
 -1       172 1.90053E+00-4.74952E-01-2.93760E+00 2.86991E-01-3.34670E-01-6.08125E-01
 -1       173 1.20450E+00-2.17924E+00-1.20978E+00 6.35771E-01 2.93965E-02-2.20191E-01
 -1       174 2.06206E+00-2.74114E+00-8.99602E-01 1.35174E-01-2.27981E-01-3.34341E-01
 -1       175 2.51618E+00-2.69651E+00-1.06074E+00-6.45689E-01-1.59238E-01-2.27179E-01
 -1       176 1.05209E+00-8.95501E-01-1.90078E+00-1.87745E-01 2.95187E-02 4.11957E-01
 -1       177 2.49431E+00-2.74733E+00-2.47165E+00-4.00988E-01 1.97841E-01-2.28907E-01
 -1       178 1.82245E+00-2.82453E+00-9.48619E-01 1.44646E-01-2.74534E-02 3.25833E-01
 -1       179 2.45885E+00-2.60714E+00-2.55337E+00 3.31562E-01 9.16654E-02 2.72469E-01
 -1       180 2.78621E+00-2.48545E+00-3.07632E+00-1.67547E-01 3.16611E-01-2.29469E-01
 -1       181 6.08133E+01 6.85306E-05 1.10227E-04 1.57709E+01-6.45861E-06 2.41394E+01
 -1       182 6.14637E+01 1.03797E-04 7.98759E-05 2.19615E+01-1.03862E-05-2.72060E+00
 -1       183 6.24034E+01-3.35754E-01-2.42614E+00 2.13567E+01 1.47347E+00 8.68921E+00
 -1       184 6.29199E+01 6.75317E-05 1.17839E-04 1.60582E+01 3.75636E-06-2.51025E+01
 -1       185 6.42602E+01 6.39404E-05 1.35242E-04 8.80430E+00 4.96804E-07-2.75730E+01
 -1       186 6.07068E+01-3.09130E-01-3.54702E+00 4.99153E-01 1.73087E+00-2.01217E+01
 -1       187 6.64631E+01-8.03442E-01-3.89479E+00-2.24723E+01-2.26108E+00-1.77278E+01
 -1       188 6.55804E+01-2.89931E+00-1.90220E+00-1.65461E+01 2.45233E+00 2.07037E+01
 -1       189 6.81671E+01-2.09983E+00-4.44192E+00-2.01783E+01-3.09105E+00 6.06587E+00
 -1       190 6.14875E+01 1.05407E-04 9.57669E-05-2.31803E+01 1.11690E-05-6.00102E+00
 -1       191 6.12681E+01-1.92210E+00 2.51712E-02-7.59491E+00-1.76158E-01 1.72521E+01
 -1       192 5.93631E+01 6.46741E-05 1.09344E-04 7.41520E+00-1.13077E-06 2.27357E+01
 -1       193 5.93821E+01 5.90156E-01-2.14990E+00 2.01915E+01-1.46169E+00-1.30610E+01
 -1       194 5.88076E+01-3.45505E+00-2.81540E-02-1.02346E+01-4.23195E-01-1.13347E+01
 -1       195 5.83559E+01 6.34655E-05 9.47568E-05 8.82267E-01-3.49518E-06 2.08879E+01
 -1       196 5.53410E+01 3.12512E-01-1.42323E+00-4.48099E-01 9.91636E-03 4.36732E+00
 -1       197 5.68715E+01-2.47363E+00 6.55214E-03 9.42346E+00 1.75345E-01-3.48952E+00
 -1       198 5.72307E+01 9.19794E-05 6.87751E-05-3.48007E-01 7.90521E-06-5.78836E+00
 -1       199 3.94336E+01-1.35533E+01-1.28675E+01-1.64057E+00-4.21630E-01 1.54053E+00
 -1       200 2.16810E+01-9.39666E+00-6.90891E+00-7.14045E-01 1.11540E-01 8.85394E-01
 -1       201 4.56671E+01-1.85019E+01-1.38428E+01-8.72781E-01-6.02983E-01 2.24785E+00
 -1       202 2.16794E+01-7.73211E+00-8.72485E+00-7.50983E-01-3.46089E-03 1.18747E+00
 -1       203 2.21286E+01-9.36756E+00-8.17793E+00-3.80090E-01-4.65639E-02 1.31054E+00
 -1       204 2.59222E+01-1.10323E+01-8.11268E+00-9.92526E-01 2.76047E-01-1.19522E+00
 -1       205 2.42058E+01-8.97624E+00-7.94785E+00-8.95308E-01 1.41898E-01-1.08263E+00
 -1       206 2.20847E+01-7.14040E+00-9.36486E+00 5.58827E-01-1.48765E-01-1.08461E+00
 -1       207 2.21338E+01-9.11367E+00-7.32438E+00 1.23389E+00 6.08367E-02-7.94692E-01
 -1       208 2.27555E+01-8.87563E+00-9.56371E+00 9.95848E-01-4.97764E-02-9.48368E-01
 -1       209 6.32553E+01-2.07347E+01-2.14267E+01 3.61158E-02 2.08821E-01 4.03940E-01
 -1       210 4.59281E+01-1.68342E+01-1.59659E+01 4.07835E-01-4.69770E-01 8.76707E-01
 -1       211 5.94984E+01-2.00315E+01-2.03929E+01 8.65875E-01 3.88557E-02 7.49619E-01
 -1       212 6.44894E+01-2.03602E+01-2.11292E+01-9.72595E-02-1.75686E-01 3.94740E-01
 -1       213 7.84179E+01-2.21208E+01-2.53467E+01-6.67392E-01 5.81863E-01-4.69194E-01
 -1       214 5.86687E+01-1.95771E+01-2.03589E+01 1.83478E+00 2.15606E-01 4.69627E-01
 -1       215 7.27568E+01-2.27351E+01-2.27692E+01 4.19610E-01-4.82745E-01 2.01855E-01
 -1       216 7.94993E+01-2.34078E+01-2.44715E+01 1.33134E+00-1.95767E-01-1.09830E+00
 -1       217 5.52172E+01-1.96020E+01-1.88882E+01-9.63306E-01-2.47615E-02 5.51572E-01
 -1       218 6.01042E+01-2.03930E+01-2.07339E+01-1.92220E+00-4.41076E-01 9.08919E-01
 -1       219 6.85156E+01-2.24422E+01-2.31385E+01-1.67776E+00-3.59390E-01-4.75164E-02
 -1       220 5.53467E+01-1.87785E+01-1.98011E+01-4.17534E-01 1.04976E-01-8.24427E-01
 -1       221 7.26917E+01-2.16052E+01-2.23931E+01 4.55350E-01 1.59205E-02 1.02356E+00
 -1       222 5.16757E+01-1.69304E+01-2.04931E+01 2.63150E+00-2.40400E-01-5.73352E-01
 -1       223 7.09990E+01-1.98971E+01-1.77141E+01-7.98317E+00 3.78138E-01 3.71616E+00
 -1       224 6.48778E+01-2.27925E+01-2.22724E+01 2.13613E+00 7.67139E-01-7.94069E-01
 -1       225 5.37408E+01-1.99329E+01-1.81244E+01 7.15225E-01-3.03898E-01-2.82174E+00
 -1       226 3.90383E+01-1.29670E+01-1.33159E+01 1.41649E+00-6.26475E-01-1.46699E+00
 -1       227 7.24728E+01-2.34038E+01-2.46993E+01 1.12754E-02-9.71564E-01 9.55132E-01
 -1       228 7.53272E+01-2.40597E+01-2.19507E+01-4.62330E-01-9.91768E-01 4.96921E-01
 -1       229 6.44063E+01-2.22691E+01-2.16586E+01-9.43717E-01-6.18860E-01-2.09119E+00
 -1       230 5.63329E+01-2.07175E+01-1.76028E+01-1.65409E+00 8.85126E-02-1.62264E+00
 -1       231 6.88341E+01-2.15101E+01-2.26648E+01 1.05471E+00 4.96856E-02-6.39831E-01
 -1       232 4.10684E+01-1.23364E+01-1.64948E+01 1.75238E+00 7.57591E-02 7.54203E-01
 -1       233 5.80217E+01-1.95693E+01-1.84760E+01-1.47809E+00 8.55337E-01-7.30793E-01
 -1       234 4.45206E+01-1.48469E+01-1.53229E+01-1.95688E+00 3.22731E-01-1.42775E+00
 -1       235 6.82548E+01-2.17988E+01-2.33107E+01-1.27613E+00 2.20936E-01-6.57718E-01
 -1       236 5.27252E+01-1.61695E+01-2.04021E+01-1.57691E+00-1.89406E-01-5.06338E-01
 -1       237 2.35991E+01-9.55147E+00-9.48037E+00 2.12070E-01 1.43330E-01-9.82242E-01
 -1       238 4.60729E+01-1.76236E+01-1.44239E+01 1.50800E-02 4.96761E-01-1.91819E+00
 -1       239 6.70627E+01-1.64993E+01-1.41511E+01 5.66324E+00-3.04492E-01 5.03954E+00
 -1       240 6.71901E+01-1.82259E+01-1.44839E+01 5.46955E+00-4.02458E-01 5.82755E-01
 -1       241 1.96389E+01-6.49569E+00-7.38074E+00 1.10928E+00-1.18900E-01 1.08833E+00
 -1       242 2.08026E+01-6.21200E+00-9.66854E+00 1.30365E+00 7.46850E-02 6.38979E-01
 -1       243 4.19503E+01-1.36688E+01-1.55363E+01 1.32148E+00 4.62183E-02 1.81260E+00
 -1       244 2.25627E+01-9.96305E+00-7.08334E+00 2.25066E-01-4.06831E-02 8.87992E-01
 -1       245 2.31476E+01-9.62118E+00-9.06780E+00 5.27240E-02-1.51528E-01 1.10142E+00
 -1       246 6.58536E+01-1.23629E+01-1.91776E+01 5.87135E+00-5.39032E-01-6.91402E+00
 -1       247 7.78375E+01-2.19908E+01-2.35284E+01 2.36909E+00-1.13086E+00-1.88677E+00
 -1       248 6.81841E+01-1.45694E+01-1.39382E+01 3.73957E+00 3.82839E-01-6.66531E+00
 -1       249 7.43429E+01-1.51646E+01-1.79853E+01-3.63859E+00 1.27302E+00-1.18348E+01
 -1       250 7.29279E+01-1.66495E+01-1.70785E+01 1.32771E+01 4.27921E-01-6.78928E+00
 -1       251 2.35267E+01-9.67598E+00-9.20146E+00-8.89869E-01-1.64845E-01 5.63325E-01
 -1       252 3.33439E+01-1.23598E+01-1.27635E+01-1.44619E+00-6.71748E-02-7.58092E-01
 -1       253 7.64352E+01-2.23274E+01-2.16677E+01 1.59176E+00-1.23800E-01 1.05363E+00
 -1       254 7.80144E+01-2.27450E+01-2.22710E+01 2.01489E+00-9.39504E-03 2.63120E+00
 -1       255 6.65922E+01-2.24593E+01-2.11033E+01-9.47494E-02 4.14352E-01 1.38604E+00
 -1       256 6.07058E+01-2.10161E+01-1.90762E+01-1.71890E+00-4.97415E-01 1.45941E-01
 -1       257 7.02262E+01-1.58027E+01-1.45767E+01-3.70782E+00 1.03848E+00-8.20582E-01
 -1       258 6.87929E+01-1.53215E+01-1.30588E+01 3.65660E+00 1.53251E-01 2.08139E+00
 -1       259 6.71252E+01-1.73415E+01-1.40915E+01 6.09647E+00 1.62363E-01-6.33313E+00
 -1       260 7.24926E+01-1.74111E+01-1.92212E+01-4.98192E+00-4.21661E-01-1.05128E+01
 -1       261 7.06926E+01-2.23887E+01-2.21075E+01 4.25716E-01-3.00534E-01 1.01070E+00
 -1       262 7.57829E+01-2.46660E+01-2.30732E+01 1.03071E+00 2.27617E-01-2.36915E+00
 -1       263 4.30094E+01-1.36103E+01-1.64423E+01-1.84058E+00 2.30557E-02 1.05497E+00
 -1       264 2.24659E+01-6.73522E+00-1.02276E+01-1.28379E+00 2.42955E-01-4.95014E-01
 -1       265 6.97692E+01-1.82795E+01-1.71914E+01-3.39619E+00 3.25961E-01 2.02219E+00
 -1       266 6.87286E+01-1.30157E+01-1.52798E+01-1.26661E+00 1.33030E+00 4.92214E+00
 -1       267 6.57859E+01-1.62514E+01-1.68094E+01-4.27053E+00-3.41281E-01 6.68901E-02
 -1       268 6.88817E+01-1.76682E+01-1.72724E+01-5.87221E+00-2.55387E-01-2.73294E+00
 -1       269 3.97575E+01-1.39725E+01-1.28992E+01 1.08650E+00 3.26380E-01 1.75303E+00
 -1       270 6.81611E+01-1.26853E+01-1.69628E+01 6.20198E+00 9.44060E-01 6.57550E+00
 -1       271 6.50903E+01-2.09246E+01-2.00645E+01 3.53866E-04 2.94027E-01 4.51242E-01
 -1       272 7.11036E+01-1.32241E+01-1.91430E+01 1.40934E+01 1.00243E+00 6.18576E+00
 -1       273 5.31646E+01-2.02541E+01-1.63183E+01-1.24285E-01 2.91900E-01 2.06370E+00
 -3
    1PSTEP                        13           1           1          
    1PGM                1.000000E+00                                  
    1PGK                8.098942E+11                                  
    1PHID                         -1                                  
    1PSUBC                         0                                  
    1PMODE                         5                                  
  100CL  105 1.43230E+05         273                     2    5MODAL      1
 -4  DISP        4    1
 -5  D1          1    2    1    0
 -5  D2          1    2    2    0
 -5  D3          1    2    3    0
 -5  ALL         1    2    0    0    1ALL
 -1         1 4.01397E+02-1.59897E+00 1.85701E+02
 -1         2-8.55957E+02 1.55515E+02 2.43060E+02
 -1         3 8.55469E+02 1.54259E+02 2.44362E+02
 -1         4-4.10067E+02-8.52857E-01 1.93324E+02
 -1         5 0.00000E+00 0.00000E+00 0.00000E+00
 -1         6 0.00000E+00 0.00000E+00 0.00000E+00
 -1         7 0.00000E+00 0.00000E+00 0.00000E+00
 -1         8 0.00000E+00 0.00000E+00 0.00000E+00
 -1         9 0.00000E+00 0.00000E+00 0.00000E+00
 -1        10 0.00000E+00 0.00000E+00 0.00000E+00
 -1        11-2.15154E+02 2.65731E+01-2.67637E+02
 -1        12-6.91817E+02 8.68004E+01-1.62806E+02
 -1        13-6.25034E+02 4.43213E+01 2.99138E+02
 -1        14-7.65701E+02 1.18558E+02 3.17802E+02
 -1        15-1.16017E+02-2.64002E+02-3.80759E+02
 -1        16-3.34017E+02-2.39603E+02-2.74578E+02
 -1        17 0.00000E+00 0.00000E+00 0.00000E+00
 -1        18 0.00000E+00 0.00000E+00 0.00000E+00
 -1        19 1.05589E+02-2.58079E+02-3.72491E+02
 -1        20 3.25061E+02-2.42185E+02-2.81661E+02
 -1        21 7.42161E+02 1.14674E+02 2.91653E+02
 -1        22 6.17480E+02 4.14089E+01 3.02300E+02
 -1        23 2.12355E+02 3.37488E+01-2.68750E+02
 -1        24 6.89742E+02 7.89923E+01-1.54282E+02
 -1        25-6.89197E+01 9.92960E+01 2.08324E+02
 -1        26-4.59553E+02 1.22523E+02 2.28281E+02
 -1        27 0.00000E+00 0.00000E+00 0.00000E+00
 -1        28 0.00000E+00 0.00000E+00 0.00000E+00
 -1        29 4.47612E+02 1.22250E+02 2.36815E+02
 -1        30 1.37839E+01 8.83641E+01 2.02930E+02
 -1        31 0.00000E+00 0.00000E+00 0.00000E+00
 -1        32 0.00000E+00 0.00000E+00 0.00000E+00
 -1        33-6.59526E+01-1.64923E+02-2.38519E+02
 -1        34-3.57954E+02-8.27131E+01-2.47055E+02
 -1        35-4.29930E+02-1.59297E+02-1.88279E+02
 -1        36 1.23134E+02-8.49311E+01-2.04410E+02
 -1        37 2.54561E+02-2.10915E+02-3.00019E+02
 -1        38 5.37244E+02-4.92272E+01-1.61870E+02
 -1        39 4.03966E+01-1.61622E+02-4.13312E+02
 -1        40-2.93765E+02-5.78583E+00-1.95887E+02
 -1        41-1.70985E+02-4.94589E+01-3.85513E+02
 -1        42 1.96985E+02-2.92706E+01-3.54286E+02
 -1        43 2.15726E+02-3.19986E+01-2.26461E+02
 -1        44-1.85613E+01-1.35847E+02-4.07914E+02
 -1        45 2.43114E+02 1.16874E+02 3.04525E+02
 -1        46-2.44818E+02 9.18609E+01 2.93744E+02
 -1        47-1.10592E+02 1.12572E+02 2.83795E+02
 -1        48 0.00000E+00 0.00000E+00 0.00000E+00
 -1        49 0.00000E+00 0.00000E+00 0.00000E+00
 -1        50 0.00000E+00 0.00000E+00 0.00000E+00
 -1        51 8.63167E+01-5.54823E+01-1.23104E+02
 -1        52-2.09264E+02-4.59430E+01-1.01862E+02
 -1        53 1.70064E+02-8.55302E+01-2.72821E+02
 -1        54-3.23904E+01-1.14136E+02-3.12400E+02
 -1        55 0.00000E+00 0.00000E+00 0.00000E+00
 -1        56 0.00000E+00 0.00000E+00 0.00000E+00
 -1        57 0.00000E+00 0.00000E+00 0.00000E+00
 -1        58-4.88221E+01 1.36598E+01-1.44027E+02
 -1        59-4.59752E+02 5.48515E+01-2.77493E+02
 -1        60-8.11432E+02 1.20904E+02 4.15137E+01
 -1        61-5.24613E+02 1.08778E+01 2.49100E+02
 -1        62-6.97563E+02 8.05070E+01 3.15664E+02
 -1        63-8.16086E+02 1.45004E+02 2.76042E+02
 -1        64-3.32885E+01-1.47781E+02-2.06882E+02
 -1        65-2.32872E+02-2.98009E+02-4.02526E+02
 -1        66-3.89728E+02-1.16867E+02-3.80019E+01
 -1        67 0.00000E+00 0.00000E+00 0.00000E+00
 -1        68 0.00000E+00 0.00000E+00 0.00000E+00
 -1        69 0.00000E+00 0.00000E+00 0.00000E+00
 -1        70 2.23133E+01-1.35202E+02-1.96537E+02
 -1        71 2.18457E+02-2.97503E+02-4.06574E+02
 -1        72 3.80575E+02-1.20442E+02-4.70011E+01
 -1        73 8.05701E+02 1.42376E+02 2.68261E+02
 -1        74 6.81705E+02 7.81168E+01 3.03590E+02
 -1        75 5.16363E+02 9.70078E+00 2.43136E+02
 -1        76 5.51277E+01 1.82015E+01-1.62036E+02
 -1        77 4.63872E+02 4.98747E+01-2.79951E+02
 -1        78 8.10630E+02 1.15767E+02 4.56111E+01
 -1        79 1.61873E+02 5.13012E+01 1.89992E+02
 -1        80-2.66635E+02 1.13097E+02 2.13856E+02
 -1        81-6.58198E+02 1.35325E+02 2.37185E+02
 -1        82 0.00000E+00 0.00000E+00 0.00000E+00
 -1        83 0.00000E+00 0.00000E+00 0.00000E+00
 -1        84 0.00000E+00 0.00000E+00 0.00000E+00
 -1        85 6.54869E+02 1.35473E+02 2.41238E+02
 -1        86 2.32949E+02 1.09592E+02 2.13676E+02
 -1        87-1.94103E+02 4.61473E+01 1.94447E+02
 -1        88 0.00000E+00 0.00000E+00 0.00000E+00
 -1        89 0.00000E+00 0.00000E+00 0.00000E+00
 -1        90 0.00000E+00 0.00000E+00 0.00000E+00
 -1        91 4.58476E+00-1.00746E+02-1.42080E+02
 -1        92-6.44683E+01-2.12847E+02-2.96935E+02
 -1        93 8.26904E+00-8.90212E+01-1.23678E+02
 -1        94-1.27939E+01-7.43213E+01-1.21558E+02
 -1        95-5.53925E+01-2.22259E+01-1.39980E+02
 -1        96-2.96018E+02-2.94715E+01-2.58211E+02
 -1        97-5.27369E+02 2.05436E+00-2.12315E+02
 -1        98-7.68079E+02 8.96987E+01 6.39312E+01
 -1        99-4.91543E+02-9.46862E+01 1.92628E+01
 -1       100-6.33118E+02-1.55984E+01 5.00558E+01
 -1       101-5.66797E+02-6.39823E+01 3.10415E+01
 -1       102-3.86890E+02-2.10584E+02-2.19729E+02
 -1       103-2.26133E+02-2.54159E+02-3.28848E+02
 -1       104-1.24562E+02-7.43019E+01-2.00164E+02
 -1       105-6.39415E+02-1.78718E+00-4.37822E+01
 -1       106-2.40949E+02-1.97986E+02-2.85914E+02
 -1       107-4.02649E+02-1.26098E+02-2.19871E+02
 -1       108-1.98060E+02-1.40334E+02-2.52522E+02
 -1       109 2.89925E+01-2.17170E+01-1.11402E+02
 -1       110 2.97164E+01-4.81752E+01-1.01503E+02
 -1       111 2.47313E+01-6.87450E+01-1.13538E+02
 -1       112-1.23290E+01-1.23516E+02-1.73876E+02
 -1       113 3.11623E+02-2.45197E+02-2.95693E+02
 -1       114 1.43469E+02-2.47976E+02-3.49752E+02
 -1       115 4.82673E+02-1.02070E+02 8.58854E+00
 -1       116 7.58242E+02 8.30294E+01 6.91743E+01
 -1       117 6.79862E+02 2.96373E+01 5.82968E+01
 -1       118 6.20035E+02-2.17904E+01 5.13724E+01
 -1       119 6.17631E+02 1.66218E+01-1.52425E+02
 -1       120 3.99314E+02-2.23531E+01-2.58117E+02
 -1       121 1.64720E+02-3.03439E+01-2.30351E+02
 -1       122 6.83981E+01-1.42039E+02-2.08508E+02
 -1       123 5.02507E+02-1.15396E+02-7.48308E+01
 -1       124 3.25073E+02-8.99297E+01-2.53090E+02
 -1       125 1.93328E+02-1.50590E+02-2.60776E+02
 -1       126 3.93971E+02-1.34220E+02-2.25884E+02
 -1       127 7.55426E+01-1.19131E+02-2.25321E+02
 -1       128 1.41407E+02-2.21327E+02-4.27700E+02
 -1       129 1.60824E+02-2.01467E+02-3.69786E+02
 -1       130 1.57495E+02-6.04646E+01-5.55320E+01
 -1       131-1.98052E+02 3.44368E+01-3.67007E+00
 -1       132-3.88788E+02 6.10430E+01 1.92628E+01
 -1       133-6.23843E+02 9.15339E+01 1.73737E+01
 -1       134-9.29101E+01-2.80203E+00-1.87585E+02
 -1       135-3.96435E+02 8.53924E+00-3.26276E+02
 -1       136-2.41548E+02-6.73590E+00-3.36175E+02
 -1       137-6.52377E+01-2.71491E+01-2.43735E+02
 -1       138-1.26133E+01-6.31942E+01-2.71245E+02
 -1       139-1.94868E+01-5.67291E+01-1.59377E+02
 -1       140-4.98929E+02 3.92502E+01-1.85540E+02
 -1       141 3.94615E+01-1.25345E+02-3.41109E+02
 -1       142-8.01750E+01-1.03485E+02-4.13499E+02
 -1       143-2.45482E+02-4.53466E+01-3.50458E+02
 -1       144-1.16074E+02-7.96250E+01-3.18249E+02
 -1       145 9.44124E+01 7.28309E+00-1.87533E+02
 -1       146 2.31712E+02 4.18706E+00-3.18802E+02
 -1       147 4.10733E+02 1.75675E+01-3.21343E+02
 -1       148 6.21243E+02 8.93349E+01 1.84146E+01
 -1       149 1.31633E+02 1.68828E+01-2.02185E+01
 -1       150 3.38999E+02 4.82037E+01-2.87234E-01
 -1       151-1.87662E+02-6.53433E+01-4.71687E+01
 -1       152-7.38942E+01-1.19853E+02-2.32487E+02
 -1       153-1.19954E+02-1.97633E+02-4.08632E+02
 -1       154-1.29950E+02-2.08269E+02-4.12917E+02
 -1       155-2.74299E+01-8.13263E+01-2.52294E+02
 -1       156 1.55471E+01-4.88620E+01-2.49983E+02
 -1       157 4.57226E+02 2.70182E+01-1.98877E+02
 -1       158-6.14201E+01-1.16961E+02-2.59964E+02
 -1       159 7.35494E+01-1.39738E+01-2.18318E+02
 -1       160 9.44616E+01-7.76288E+01-3.87511E+02
 -1       161 2.45187E+02-4.61953E+01-3.62315E+02
 -1       162 8.05375E+01-1.04581E+02-3.86226E+02
 -1       163 5.96186E+02 1.30458E+02 2.70149E+02
 -1       164 3.50076E+02 1.22029E+02 2.70415E+02
 -1       165 1.16774E+02 1.10343E+02 2.59120E+02
 -1       166-3.04468E+02 5.36237E+01 2.53574E+02
 -1       167-4.26192E+02 7.09283E+01 2.97212E+02
 -1       168-4.98461E+02 9.50503E+01 3.09731E+02
 -1       169-6.02898E+02 1.30470E+02 2.73835E+02
 -1       170 2.71000E+02 5.97825E+01 2.49207E+02
 -1       171-2.94991E+02 1.18542E+02 2.49650E+02
 -1       172-8.14514E+01 1.06449E+02 2.45395E+02
 -1       173 2.37966E+02 8.31710E+01 2.81717E+02
 -1       174 4.22741E+02 9.27246E+01 3.10145E+02
 -1       175 4.98473E+02 1.10850E+02 2.97014E+02
 -1       176-1.24895E+02 8.57130E+01 2.56170E+02
 -1       177-4.00227E+00 1.07009E+02 2.93938E+02
 -1       178-4.30645E+02 1.17022E+02 2.98346E+02
 -1       179-1.78177E+02 1.08281E+02 2.98059E+02
 -1       180 6.47462E+01 1.09758E+02 3.02595E+02
 -1       181 0.00000E+00 0.00000E+00 0.00000E+00
 -1       182 0.00000E+00 0.00000E+00 0.00000E+00
 -1       183 0.00000E+00 0.00000E+00 0.00000E+00
 -1       184 0.00000E+00 0.00000E+00 0.00000E+00
 -1       185 0.00000E+00 0.00000E+00 0.00000E+00
 -1       186 0.00000E+00 0.00000E+00 0.00000E+00
 -1       187 0.00000E+00 0.00000E+00 0.00000E+00
 -1       188 0.00000E+00 0.00000E+00 0.00000E+00
 -1       189 0.00000E+00 0.00000E+00 0.00000E+00
 -1       190 0.00000E+00 0.00000E+00 0.00000E+00
 -1       191 0.00000E+00 0.00000E+00 0.00000E+00
 -1       192 0.00000E+00 0.00000E+00 0.00000E+00
 -1       193 0.00000E+00 0.00000E+00 0.00000E+00
 -1       194 0.00000E+00 0.00000E+00 0.00000E+00
 -1       195 0.00000E+00 0.00000E+00 0.00000E+00
 -1       196 0.00000E+00 0.00000E+00 0.00000E+00
 -1       197 0.00000E+00 0.00000E+00 0.00000E+00
 -1       198 0.00000E+00 0.00000E+00 0.00000E+00
 -1       199-2.77530E+02-1.25126E+02-1.67557E+02
 -1       200-4.06052E+02-3.71921E-01 9.32952E+01
 -1       201-3.40105E+02-9.52391E+01-1.54590E+02
 -1       202-1.22272E+02 6.48095E+00 5.71728E+01
 -1       203-2.33575E+02 2.30221E+01 9.79820E+01
 -1       204 4.55321E+02 2.14163E+01 3.68960E+01
 -1       205 5.49722E+02 5.45909E+01 1.59246E+01
 -1       206 2.45151E+01 1.16446E+01 3.58649E+01
 -1       207 3.30199E+02-1.10145E+01 7.82479E+01
 -1       208-5.43408E+00 3.10383E+01 7.87202E+01
 -1       209-1.03799E+02-1.09041E+02-2.90936E+02
 -1       210-6.21453E+01-3.52458E+01-1.06126E+02
 -1       211-2.24631E+02-7.25517E+01-2.84330E+02
 -1       212 8.38238E+00-1.06567E+02-2.95279E+02
 -1       213-1.06660E+02-9.41660E+01-3.29912E+02
 -1       214-1.03773E+02-9.12849E+01-3.20701E+02
 -1       215 4.77968E+01-1.15220E+02-3.23324E+02
 -1       216-8.26726E+00-1.23367E+02-3.36868E+02
 -1       217 8.05541E-01-7.26492E+01-2.02528E+02
 -1       218-6.10599E+01-1.34324E+02-3.21124E+02
 -1       219 7.87093E+01-1.08167E+02-3.55987E+02
 -1       220 1.36288E+02-7.54351E+01-1.96108E+02
 -1       221-9.25273E+00-1.22212E+02-3.47913E+02
 -1       222 5.01742E+01-1.17217E+02-2.79414E+02
 -1       223 6.37559E+01-1.42426E+02-2.72012E+02
 -1       224 1.69523E+02-2.02956E+02-3.61977E+02
 -1       225 2.35489E+02-1.40999E+02-2.54601E+02
 -1       226 2.13458E+02-1.29474E+02-1.97035E+02
 -1       227 1.91172E+02-4.73789E+01-2.74897E+02
 -1       228 1.21544E+02-1.34925E+02-3.21933E+02
 -1       229 2.48315E+02-1.22360E+02-2.81091E+02
 -1       230 3.50113E+02-6.62249E+01-2.27394E+02
 -1       231 2.27088E+02-9.54960E+01-3.01656E+02
 -1       232-1.08968E+02-4.01631E+01-1.59944E+02
 -1       233 3.55735E+02-3.70585E+01-2.97748E+02
 -1       234 3.92032E+02-1.55254E+01-1.91673E+02
 -1       235 2.14165E+02-7.30106E+01-3.35881E+02
 -1       236 1.93519E+02-5.69562E+01-2.47722E+02
 -1       237 1.64111E+02 2.98275E+01 9.57975E+01
 -1       238 3.36945E+02-7.55846E+01-1.49208E+02
 -1       239 7.03051E+01-4.30619E+01-2.06528E+02
 -1       240 2.26870E+01-6.34744E+01-2.26490E+02
 -1       241-5.18759E+02 6.88532E+01 6.57541E+01
 -1       242-2.23961E+02 4.31621E+01 4.34466E+01
 -1       243-2.57024E+02-1.95900E+01-1.25773E+02
 -1       244-4.73750E+02 2.94558E+01 1.02296E+02
 -1       245-1.70343E+02 3.82323E+01 9.49496E+01
 -1       246-3.53570E+01-7.66219E+01-1.42676E+02
 -1       247-1.04398E+02-1.28592E+02-2.83467E+02
 -1       248-2.46780E+01-7.70885E+01-1.95199E+02
 -1       249-6.47824E+01-6.90469E+01-1.77960E+02
 -1       250-3.22931E+01-8.31383E+01-1.65514E+02
 -1       251-2.80473E+00 3.48609E+01 9.17423E+01
 -1       252 2.21666E+02 8.24698E-02-2.64162E+01
 -1       253 9.58692E+01-9.43401E+01-3.24970E+02
 -1       254 1.12146E+02-1.01912E+02-2.83189E+02
 -1       255-2.77165E+02-4.70518E+01-3.15999E+02
 -1       256-1.57369E+02-1.91332E+02-3.55173E+02
 -1       257-1.71033E+01-7.22555E+01-2.01376E+02
 -1       258 1.62280E+01-6.93025E+01-2.02695E+02
 -1       259-2.67476E+01-8.74858E+01-2.26821E+02
 -1       260-1.00314E+02-3.89671E+01-2.00021E+02
 -1       261-1.89461E+02-1.12302E+02-3.04009E+02
 -1       262-8.71345E+01-1.67792E+02-3.29759E+02
 -1       263 1.12972E+01-5.85588E+01-1.59444E+02
 -1       264 2.40912E+02 3.92138E+01 3.53591E+01
 -1       265 6.16291E+01-1.14050E+02-2.61540E+02
 -1       266 3.91993E+01-6.27808E+01-1.52262E+02
 -1       267-1.51698E+00-1.05815E+02-3.07034E+02
 -1       268-5.00262E+01-6.08812E+01-2.36361E+02
 -1       269-4.73972E+02-7.95470E+00-1.23492E+02
 -1       270 5.13373E+01-5.03619E+01-1.38439E+02
 -1       271-1.92011E+02-1.36261E+02-3.05350E+02
 -1       272 6.49511E+01-2.46184E+01-1.41595E+02
 -1       273-3.49771E+02-8.43746E+01-2.17056E+02
 -3
    1PSTEP                        14           1           1          
    1PGM                1.000000E+00                                  
    1PGK                8.098942E+11                                  
    1PHID                         -1                                  
    1PSUBC                         0                                  
    1PMODE                         5                                  
  100CL  105 1.43230E+05         273                     2    5MODAL      1
 -4  STRESS      6    1
 -5  SXX         1    4    1    1
 -5  SYY         1    4    2    2
 -5  SZZ         1    4    3    3
 -5  SXY         1    4    1    2
 -5  SYZ         1    4    2    3
 -5  SZX         1    4    3    1
 -1         1 3.20163E+05-1.07202E+05-2.51688E+05 8.99131E+04-7.61896E+04 1.24772E+05
 -1         2-6.69064E+05 2.24511E+05 4.08244E+05 6.55047E+04-1.68063E+05 4.76032E+04
 -1         3 6.87033E+05-3.17885E+05-1.88221E+05-7.76598E+04 9.04369E+04 2.12247E+05
 -1         4-1.99572E+05 1.32746E+05 3.10987E+05 1.17989E+05 1.03981E+05 7.61823E+04
 -1         5-1.34505E+06-5.76436E+05-5.76427E+05-6.65083E+06 1.22678E+00-9.73077E+06
 -1         6 1.63572E+06 7.00989E+05 7.00984E+05 6.60228E+05-3.27871E+00-7.25633E+06
 -1         7 3.82738E+06-9.32314E+04 1.04946E+06-4.66539E+05 1.16305E+06-6.60555E+06
 -1         8 5.49260E+06 2.91051E+06 2.52091E+06-6.39552E+06 2.31868E+05-9.80579E+06
 -1         9 9.98564E+06 4.27955E+06 4.27954E+06-5.50735E+06 9.72636E-01-7.38091E+06
 -1        10-8.81680E+06-2.48640E+06-2.00715E+06-3.10586E+06 1.00682E+05-6.77576E+06
 -1        11-2.56137E+07 6.15181E+05 7.83705E+05 4.34669E+05-5.96070E+04-1.51580E+06
 -1        12-2.09491E+07-8.94196E+04-8.31178E+05 6.28084E+04 4.98245E+05 1.46684E+06
 -1        13-1.57425E+06 4.05334E+06 8.42331E+05 6.68940E+05-1.91129E+05-1.43233E+05
 -1        14-2.25498E+06 3.94280E+06 9.60464E+05 4.70534E+05-7.60964E+05 2.67666E+05
 -1        15-1.24850E+07 6.05241E+05 1.01343E+06-1.64314E+06 4.36588E+05-2.91181E+06
 -1        16-9.09767E+06 3.93491E+05-1.20142E+06 1.44141E+06-2.49628E+05 1.84050E+06
 -1        17-4.34549E+05-1.86211E+05-1.86206E+05-3.13442E+06-5.34022E-02-5.86346E+06
 -1        18-2.58613E+06-1.25356E+06-1.60199E+06-6.15257E+06-6.64004E+04-7.32587E+06
 -1        19 1.27402E+07-8.74300E+04-3.18666E+05-2.04006E+06 3.63915E+04-2.33422E+06
 -1        20 9.57667E+06-3.46261E+05 6.98567E+05 1.04773E+06 1.52524E+05 1.52912E+06
 -1        21 6.10607E+05-4.13798E+06-7.52640E+05 5.51556E+05 5.81138E+05-1.82579E+05
 -1        22 2.42973E+06-3.86262E+06-8.83839E+05 1.09526E+06 1.02155E+05 3.99282E+05
 -1        23 2.84173E+07 3.24957E+05 1.89248E+05-1.52454E+05-2.11373E+05-1.23792E+06
 -1        24 2.09185E+07 3.09707E+05 7.42218E+05-2.00746E+05-3.24881E+05 1.57588E+06
 -1        25-1.23992E+06 3.41940E+05 1.25257E+06 7.65591E+04-8.93712E+05 2.29868E+06
 -1        26 8.00483E+05 3.56396E+05 1.91327E+06-2.46702E+05-9.77262E+05 1.37654E+06
 -1        27 5.81619E+06 3.09230E+06 1.23699E+06-3.56166E+06 1.07990E+03-1.43612E+07
 -1        28-7.85932E+06-2.99432E+06-2.74837E+06-1.52393E+06 2.60725E+05-1.23916E+07
 -1        29-8.71920E+05-1.68295E+05-1.53545E+06 2.42047E+04 8.14232E+05 1.63851E+06
 -1        30 1.07768E+06-1.25046E+05-6.59510E+05 7.98336E+04 7.89881E+05 1.52853E+06
 -1        31 8.83495E+06 3.57896E+06 2.70740E+06-4.16185E+05 6.80793E+04-1.19772E+07
 -1        32-7.83087E+06-2.88213E+06-2.52633E+06-3.82525E+06-1.06150E+05-1.33530E+07
 -1        33-1.42227E+07-2.69601E+05 4.90155E+05-4.92663E+06-2.02916E+04-2.41908E+06
 -1        34-2.45252E+07 3.11462E+05-3.61763E+05-8.95944E+05 2.17945E+04-5.77642E+05
 -1        35-1.94542E+07 1.75988E+06-9.69564E+05 2.08917E+05 6.32853E+04 1.89489E+06
 -1        36 1.90318E+07-2.04782E+05-9.38965E+05-2.63597E+06 1.29177E+05-3.32259E+06
 -1        37 1.93987E+07-6.44837E+05 7.54345E+05-1.98869E+06-1.02307E+05-3.02739E+05
 -1        38 1.94014E+07-1.19103E+06 5.44206E+05-4.26797E+04 3.60096E+04 9.97164E+05
 -1        39-2.58879E+06-9.14529E+05 1.06278E+06 1.17955E+05 1.66514E+05-3.17947E+06
 -1        40-7.15093E+06-1.91193E+05 3.42443E+05 2.57424E+05-1.52517E+05 2.06956E+06
 -1        41-1.22622E+07 5.44522E+05 3.13507E+05-9.06863E+05-1.27467E+05-6.94702E+06
 -1        42 1.53046E+07-3.86974E+05 2.36016E+05-6.74113E+05-2.71898E+05-7.11241E+06
 -1        43 6.17615E+06 3.23105E+04-6.46524E+05 3.59717E+05 3.95043E+04 1.54808E+06
 -1        44 2.95472E+06 2.24546E+05-4.16790E+05-1.07479E+06-8.15586E+03-8.35619E+06
 -1        45-2.83260E+05-1.22899E+06-8.29264E+05 3.56263E+05 1.00929E+06 1.17285E+06
 -1        46 9.47104E+04 1.76660E+06 1.21462E+06 2.71006E+05 7.46894E+04 5.99200E+05
 -1        47 3.28543E+05 4.43430E+05 9.07346E+05 2.91846E+05-1.14318E+06 6.46590E+05
 -1        48 7.31353E+06 2.48242E+06 2.32095E+06-3.34599E+06 1.03195E+04-1.09350E+07
 -1        49-6.18140E+06-2.38657E+06-1.73759E+06-4.35438E+06 5.69195E+04-1.05818E+07
 -1        50-1.48796E+06-2.26836E+05-1.82169E+05-4.15149E+06-3.70940E+04-1.20270E+07
 -1        51 1.50404E+06-8.95805E+05 8.68484E+05 5.86948E+05-2.23332E+05 1.48346E+06
 -1        52-4.33570E+06 1.22150E+06-5.74714E+05 5.20332E+05-6.83957E+04 1.59145E+06
 -1        53 5.30532E+06-3.56409E+05 1.83407E+05-3.74583E+05 1.45450E+05-1.22714E+06
 -1        54-2.44814E+06 8.14222E+04 1.27152E+05-2.58048E+06 2.45937E+04-7.53818E+06
 -1        55 9.24262E+06 3.96111E+06 3.96110E+06-6.18294E+06-1.09345E+00-8.44126E+06
 -1        56 5.73785E+06 2.45906E+06 2.45906E+06-4.66034E+06 3.03872E+00-7.25875E+06
 -1        57 5.53792E+05 2.37305E+05 2.37300E+05-1.02812E+06-3.27871E+00-7.06593E+06
 -1        58-1.22211E+07 1.10188E+06 2.02520E+06 9.18103E+05 5.98791E+05-4.20878E+06
 -1        59-2.80476E+07-7.21901E+05-1.45620E+06 2.39232E+05-4.62227E+04 4.00469E+05
 -1        60-1.03798E+07-4.81910E+05-4.47929E+05-1.17949E+05 7.54281E+05 6.64762E+05
 -1        61-1.17528E+06 2.28297E+06 2.29511E+05 2.31312E+05 6.50419E+04-2.03822E+05
 -1        62-1.44111E+06 4.73718E+06 1.36929E+06 7.22485E+05-2.00839E+05-1.34669E+04
 -1        63-4.14514E+05 2.26803E+06 6.42048E+05 5.63705E+05-8.40225E+05-1.89516E+05
 -1        64-6.12962E+06 1.33898E+06 1.66638E+06-3.81214E+06 5.05814E+05-6.98239E+06
 -1        65-1.28332E+07-3.42803E+05-1.02932E+06-4.99970E+04 1.52835E+05 3.62115E+04
 -1        66-4.71663E+06-5.90109E+04 2.30338E+05 9.98544E+05-5.61759E+04 1.02129E+06
 -1        67-5.81915E+05-2.49366E+05-2.49364E+05-1.59538E+06-1.75549E+00-6.43928E+06
 -1        68-1.44945E+06-6.21172E+05-6.21166E+05-4.33095E+06 3.35062E+00-6.56355E+06
 -1        69-7.04952E+06-3.02121E+06-3.02120E+06-6.10104E+06 1.22678E+00-8.66463E+06
 -1        70 5.88794E+06-9.54712E+04-1.80482E+06-4.56543E+06-2.24047E+05-6.24261E+06
 -1        71 1.27930E+07-1.94501E+05 7.93712E+05-1.07076E+05 4.48721E+05-4.64374E+05
 -1        72 4.73691E+06 3.90731E+05-2.59591E+05 8.04356E+05 3.21279E+05 9.48631E+05
 -1        73 3.96719E+05-2.28769E+06-2.60680E+05 2.86393E+05 3.86716E+05-1.86156E+05
 -1        74 6.28592E+05-4.62765E+06-6.46144E+05 1.19962E+06 7.79474E+05 2.60661E+05
 -1        75 1.19759E+06-2.27871E+06-4.34181E+05 3.76274E+05-2.79011E+05-4.74393E+04
 -1        76 1.22427E+07-1.42076E+06-1.06317E+06 4.01363E+05 8.12667E+05-2.61301E+06
 -1        77 2.79146E+07 7.94181E+05 8.01891E+05-2.24069E+05-2.66624E+05 5.00805E+05
 -1        78 1.01928E+07 1.00855E+05-1.19965E+05-2.77457E+05-2.80161E+05 7.87533E+05
 -1        79-1.27815E+06 1.04156E+05 9.55529E+05 1.67654E+04-3.74124E+05 1.11994E+06
 -1        80 1.95946E+05 4.62775E+05 1.39979E+06-3.59210E+04-9.55274E+05 2.10994E+06
 -1        81 8.44363E+05 2.57244E+05 1.24842E+06-2.06415E+05-6.88989E+05 8.69859E+05
 -1        82 7.42006E+06 3.18004E+06 3.18005E+06-5.89470E+06 1.22678E+00-1.10850E+07
 -1        83 1.10813E+06 4.74885E+05 4.74889E+05-2.71852E+06-6.52200E+00-1.33504E+07
 -1        84-5.62413E+06-2.41038E+06-2.41038E+06-1.14265E+05-3.27871E+00-9.30564E+06
 -1        85-7.95199E+05-1.16865E+05-7.29590E+05-1.19078E+05 5.75793E+05 1.04235E+06
 -1        86 1.07629E+05 1.91196E+04-1.84444E+06 2.73039E+05 1.25868E+06 2.16502E+06
 -1        87 1.31771E+06-6.23559E+04-2.45155E+05 8.25759E+04 4.88616E+05 9.74535E+05
 -1        88 8.48139E+06 2.99739E+06 3.44367E+06-4.16306E+05 6.14637E+05-9.57830E+06
 -1        89-4.05622E+05-1.73838E+05-1.73836E+05-2.77276E+06 1.99445E+00-1.32846E+07
 -1        90-3.20669E+06-8.52516E+05-1.21779E+06-5.09412E+06 2.88118E+05-1.12299E+07
 -1        91-3.80530E+06 1.14302E+06 2.10509E+06-5.63254E+06 7.31074E+04-5.98969E+06
 -1        92-1.20378E+07 6.07482E+05 1.57435E+06-3.86451E+06-1.33495E+04-2.45381E+06
 -1        93-3.89562E+06 1.07464E+06 2.09965E+06-5.21278E+06-1.77633E+05-4.44023E+06
 -1        94-9.11836E+06-1.47735E+05 5.01802E+05-5.12537E+06-6.25008E+05-4.23112E+06
 -1        95-1.52897E+07-1.85406E+05 9.33997E+05-1.88728E+05 4.46893E+05-3.39708E+06
 -1        96-2.64821E+07-4.03233E+05-9.57935E+05-1.05858E+05-2.64060E+05-9.88209E+05
 -1        97-2.43585E+07 1.46782E+05-1.39913E+05-3.08142E+05-1.36934E+04 5.95263E+05
 -1        98-1.07459E+07 1.73108E+06-3.97874E+05 3.14289E+05-8.17296E+04 8.38694E+05
 -1        99-6.17861E+06 2.02915E+06-2.60361E+05 1.14441E+06-1.18020E+05 7.60347E+05
 -1       100-1.07501E+07 2.97540E+06-1.89920E+05 7.18107E+05-2.48756E+05 9.10740E+05
 -1       101-1.00489E+07 2.97526E+06-4.79954E+05 8.27277E+05-2.02455E+05 8.49471E+05
 -1       102-1.55939E+07 8.76659E+05-1.07020E+06 1.09381E+06-1.19807E+04 2.00495E+06
 -1       103-1.91296E+07 1.77078E+05-1.12124E+06-8.55998E+05 7.49575E+04 5.94916E+05
 -1       104-1.49527E+07 2.67987E+05-4.61964E+04-2.49571E+06 6.88220E+04-3.34958E+06
 -1       105-1.49726E+07 1.92279E+06 1.18705E+05 2.78040E+05-2.10391E+05 3.53527E+05
 -1       106-2.02991E+07-1.48026E+05-1.46993E+06-2.37806E+06 4.51126E+04-3.57149E+04
 -1       107-2.17604E+07 1.11944E+06-7.47272E+05-2.68267E+05 1.75254E+05 5.99880E+05
 -1       108-2.08183E+07 5.38280E+05-5.11505E+05-2.92192E+06 3.12940E+05-1.79746E+06
 -1       109 1.11613E+07-8.78999E+05-5.62073E+05-1.08951E+06 5.91080E+05-4.19937E+06
 -1       110 8.65450E+06-7.76023E+05-1.57615E+06-2.70872E+06 9.75285E+03-4.74455E+06
 -1       111 7.78719E+06-4.74678E+05-1.08340E+06-3.91001E+06-2.96117E+05-5.83127E+06
 -1       112 4.11423E+06-1.24096E+06-2.47467E+06-4.91279E+06-1.23968E+05-3.93354E+06
 -1       113 1.75632E+07-2.78122E+05 1.11001E+06 1.73578E+05-1.75033E+05 8.66415E+05
 -1       114 1.69741E+07-5.64446E+04 1.35126E+06-2.94911E+06 1.52063E+05-3.47333E+05
 -1       115 6.20895E+06-1.87871E+06 8.98940E+04 1.08302E+06 1.68083E+05 8.57837E+05
 -1       116 9.97989E+06-1.92398E+06-1.48408E+05 9.37202E+04-6.04785E+03 3.44035E+05
 -1       117 9.86088E+06-2.89215E+06-5.42346E+05 4.11543E+05 3.56428E+04 3.09581E+05
 -1       118 1.00563E+07-3.49811E+06-3.79833E+05 7.52828E+05-1.02741E+05 7.35091E+05
 -1       119 2.02994E+07-3.25151E+05 7.37367E+05-9.84017E+04-5.94364E+04 1.33253E+06
 -1       120 2.68187E+07 3.60535E+05 7.10375E+05-2.55284E+05 6.83800E+04 2.76357E+05
 -1       121 2.40021E+07 1.43276E+04-2.93411E+05-8.68356E+05-2.04180E+05-1.46603E+06
 -1       122 1.06482E+07 8.93055E+04-9.11214E+05-4.83061E+06-1.31482E+05-3.71556E+06
 -1       123 1.29594E+07-2.53419E+06 2.01719E+05 5.92992E+05-3.10957E+04 7.11876E+05
 -1       124 2.31803E+07 2.96820E+05 9.32445E+05-1.45340E+06 2.11716E+05-1.11572E+06
 -1       125 1.92648E+07-5.88035E+05-8.80527E+04-2.64936E+06 1.60512E+05-2.47736E+06
 -1       126 2.16160E+07-7.91605E+05 8.64418E+05-8.06292E+05-2.60905E+04 1.93679E+05
 -1       127 9.64859E+06 1.85466E+06 3.90895E+05-2.14466E+06-2.53941E+05-8.95812E+06
 -1       128 2.55914E+06-1.42431E+06 5.41990E+04-4.94237E+05 2.30895E+05-3.84784E+06
 -1       129 2.11524E+06-7.59250E+05 1.03065E+06 7.31120E+05 1.90835E+05 2.07985E+04
 -1       130 2.69497E+06-1.56831E+05 7.88028E+05 4.89105E+05-1.84904E+05 1.92214E+06
 -1       131-3.55470E+06 2.69983E+05 1.32674E+06 1.35028E+05-5.03602E+05 2.31471E+06
 -1       132-3.71711E+06 7.80721E+04 1.25747E+06-6.35803E+04-3.14127E+05 2.00713E+06
 -1       133-8.59306E+06-2.58831E+05 2.12644E+05-2.24887E+05 1.81000E+05 1.47041E+06
 -1       134-1.64340E+07-7.72863E+05-1.40407E+05-7.44217E+05 4.91699E+05-7.05412E+06
 -1       135-1.66469E+07 2.47854E+05-3.09289E+05-5.63696E+05 4.60409E+04-2.16772E+06
 -1       136-1.88012E+07 8.24994E+05 8.34359E+04-9.15052E+05-5.14811E+05-5.05497E+06
 -1       137-9.81091E+06 2.14016E+05 1.71558E+04-1.39650E+06 2.08964E+05-1.04135E+07
 -1       138-3.06649E+06 1.78749E+06 1.57897E+06-2.02294E+06 4.41666E+05-1.09687E+07
 -1       139-1.96239E+06 1.19729E+04 2.11160E+06 3.85341E+05-2.19666E+05 1.36742E+06
 -1       140-1.32052E+07-3.72561E+04-3.64259E+05 3.18086E+05 2.69770E+05 1.82007E+06
 -1       141 1.52662E+06 1.07650E+06 1.28906E+05-1.19513E+06 1.89905E+04-9.89329E+06
 -1       142-7.08190E+06-6.05254E+05 9.34434E+04-3.30638E+05-1.72991E+04-5.37650E+06
 -1       143-9.91860E+06-7.59491E+04-5.08686E+04-4.22612E+05-1.05178E+05-2.11205E+06
 -1       144-5.74933E+06-4.92319E+05-9.62279E+04 1.12624E+05 3.91688E+05 6.49388E+04
 -1       145 1.23319E+07 2.98684E+03 8.13919E+05-6.80068E+05 3.10688E+05-7.42491E+06
 -1       146 2.22936E+07 1.05899E+05 5.56644E+05-4.83050E+05-2.79035E+05-4.52702E+06
 -1       147 1.91296E+07 1.76220E+05 8.09864E+05-3.37758E+05-2.78631E+05-2.12888E+06
 -1       148 8.75186E+06-1.78996E+05-4.18104E+05-1.93850E+05 2.29257E+05 1.42818E+06
 -1       149 3.05928E+06-7.86597E+04-7.66820E+05 2.38389E+05 5.12408E+05 1.81274E+06
 -1       150 3.26186E+06 2.34207E+05-1.18836E+06 2.75551E+05 3.18410E+05 1.78928E+06
 -1       151-2.92492E+06 2.23116E+05-1.05457E+06 8.36528E+05 2.50424E+05 1.70305E+06
 -1       152-1.00781E+07-9.12244E+05-4.38420E+05-2.24157E+06 1.15822E+05-8.95891E+06
 -1       153-3.49914E+06 9.31642E+05 2.37491E+05-9.86514E+05 4.35150E+05-6.32560E+06
 -1       154-1.46744E+06 5.98841E+05-7.88991E+05-1.83185E+04-3.04692E+05-2.78900E+06
 -1       155-2.61112E+06-1.35174E+06-1.06903E+06-2.31688E+06-1.76985E+05-1.17836E+07
 -1       156 4.29266E+06 1.60274E+05 3.57566E+04-1.05704E+06-4.45287E+05-1.09073E+07
 -1       157 1.31304E+07 1.34968E+05 3.20340E+05 2.76968E+05 7.29025E+04 1.86180E+06
 -1       158 2.15166E+05 2.51167E+05-1.38851E+06 7.06790E+05-1.55494E+05 1.98318E+06
 -1       159 1.06888E+07 2.78946E+05-5.28154E+05-3.80359E+05-4.40385E+05-1.01606E+07
 -1       160 9.30781E+06 2.68081E+04 6.69818E+04-8.75274E+05-2.47827E+04-7.90661E+06
 -1       161 1.09886E+07 2.60024E+04 3.03683E+05-2.53129E+05-7.07181E+04-2.45184E+06
 -1       162 5.86722E+06 3.00674E+05-5.01273E+05-3.29380E+05-7.14624E+04-3.05969E+06
 -1       163-6.27698E+05-2.11988E+06-1.01381E+06 1.75954E+05 7.02794E+05 7.02440E+05
 -1       164-8.82534E+05-8.42264E+05-1.19391E+06 3.44312E+05 1.16157E+06 1.38046E+06
 -1       165 6.06151E+04-6.92472E+05-1.21565E+06 1.88576E+05 9.70340E+05 1.19844E+06
 -1       166-1.64541E+03 1.88823E+06 3.73977E+05 3.23577E+05 2.92488E+05 6.82183E+05
 -1       167-5.55348E+05 2.95076E+06 1.71324E+06 4.30562E+05 9.19078E+04 2.53993E+05
 -1       168-9.57487E+05 3.54708E+06 1.90505E+06 1.92844E+05-1.43696E+05 4.39172E+05
 -1       169 3.41766E+03 1.74795E+06 1.44434E+06 1.29456E+05-1.27825E+06 4.05127E+05
 -1       170 3.57477E+05-1.42094E+06 4.03254E+02 4.71110E+05-3.61806E+05 9.84680E+05
 -1       171 5.70489E+05 7.06556E+05 1.68303E+06 2.20930E+05-1.20125E+06 8.23948E+05
 -1       172-3.42496E+05 4.13461E+05 5.16202E+05 9.67312E+04-8.98397E+05 1.17427E+06
 -1       173 9.42248E+05-1.53536E+06-6.17339E+05 5.88450E+05-5.91448E+05 5.95202E+05
 -1       174 3.60755E+05-2.70101E+06-9.67610E+05 4.62120E+05 6.21411E+05 7.95446E+05
 -1       175-7.76484E+05-2.75970E+06-5.35248E+05 3.53428E+05 1.14792E+06 7.74538E+05
 -1       176 3.31332E+05 5.59624E+05 4.14914E+05 3.73612E+04 3.07907E+05 9.43428E+05
 -1       177 4.36844E+05 8.30225E+04-8.00893E+05 2.98871E+05 3.14770E+05 5.97219E+05
 -1       178-6.25026E+05 2.44103E+06 1.78082E+06 2.20732E+05-1.02688E+06 5.54430E+05
 -1       179 4.67606E+05 1.38618E+06 1.01111E+06 3.72273E+05-4.50021E+05 6.84335E+05
 -1       180 1.47188E+05-6.09522E+05-4.66744E+05 3.32863E+05-2.18019E+05 8.82213E+05
 -1       181 6.73899E+06 2.88816E+06 2.88817E+06-1.76415E+06-1.75541E+00-8.19559E+06
 -1       182 7.07247E+05 3.03104E+05 3.03106E+05-3.42347E+06 6.79090E-01-1.22385E+07
 -1       183 7.51390E+06 2.88900E+06 2.09480E+06-1.90520E+06 3.09853E+04-1.15360E+07
 -1       184 4.44507E+05 1.90490E+05 1.90483E+05-5.46848E+06-5.16741E-01-9.53594E+06
 -1       185 1.18751E+06 5.08919E+05 5.08913E+05-4.79290E+06 9.72636E-01-8.47560E+06
 -1       186-7.21339E+06-2.92484E+06-2.18636E+06-4.47225E+06-2.42228E+05-8.87251E+06
 -1       187-9.27520E+06-3.71212E+06-2.88018E+06-1.34513E+06 3.41398E+05-9.50538E+06
 -1       188 7.80778E+05 5.44860E+05-2.27231E+05-5.54671E+06 6.19917E+04-1.06029E+07
 -1       189 1.70265E+06 9.45712E+05 4.25261E+05-4.33320E+06 1.17168E+05-1.26971E+07
 -1       190-4.31722E+06-1.85026E+06-1.85026E+06-2.62269E+06-2.31379E+00-1.19051E+07
 -1       191 5.18198E+05 4.77784E+05 3.33080E+05-4.99709E+06-2.45478E+05-1.00706E+07
 -1       192 3.96732E+06 1.70030E+06 1.70031E+06-3.26162E+06 7.97640E-01-8.01198E+06
 -1       193-6.38706E+06-2.39358E+06-1.57361E+06-4.47854E+06-6.12095E+04-1.17501E+07
 -1       194-9.88848E+06-3.65375E+06-4.05155E+06-3.48597E+06 1.15485E+05-1.03393E+07
 -1       195 2.95241E+06 1.26534E+06 1.26534E+06-4.45814E+06 1.25003E+00-8.71207E+06
 -1       196 3.67004E+06 1.41908E+06 1.15017E+06-3.95621E+06 9.06987E+04-1.15988E+07
 -1       197 8.96203E+05 3.90576E+04 2.77361E+05-3.96545E+06-7.70003E+04-1.12895E+07
 -1       198-4.23603E+06-1.81545E+06-1.81545E+06-4.36492E+06-1.27625E-01-1.13704E+07
 -1       199-6.88137E+06 1.10792E+06-9.29895E+05 9.38651E+05-4.62787E+04 1.63892E+06
 -1       200-2.85853E+06 2.70904E+06-1.20548E+05 6.85021E+05-1.52988E+05 8.53526E+05
 -1       201-1.08344E+07 2.11086E+06-5.02998E+05 3.43685E+05 1.64858E+05 1.38439E+06
 -1       202-1.60945E+06 7.62526E+05-4.27335E+05 4.41161E+05 4.72390E+05 1.52877E+06
 -1       203-2.13240E+06 1.37705E+06 1.96049E+05 5.45521E+05-5.37284E+02 1.28922E+06
 -1       204 7.75741E+06-1.74586E+06-4.23785E+05 2.63102E+05 4.52959E+05 1.15273E+06
 -1       205 8.42042E+06-8.12206E+05-5.35001E+05 8.14125E+04 3.63810E+05 1.18732E+06
 -1       206 3.38615E+05-2.90776E+05 1.22197E+06 4.58335E+05-6.71752E+05 1.86050E+06
 -1       207 1.95366E+06-2.28092E+06-5.25225E+04 8.54906E+05-8.86664E+04 1.03494E+06
 -1       208 4.64816E+05-3.34712E+05 9.83029E+05 5.09995E+05-6.16595E+05 1.15363E+06
 -1       209-3.55880E+06 5.34024E+05-5.45834E+05-1.19033E+06 2.96625E+04-2.60291E+06
 -1       210-1.18315E+06 5.66842E+04 7.94621E+04 4.84106E+05-2.53126E+05 1.60694E+06
 -1       211-7.74706E+06 6.36961E+05-2.88405E+05-3.48355E+05-8.34616E+04-2.11656E+06
 -1       212-1.51738E+05-2.43735E+05 2.09941E+05-1.05413E+06-7.56244E+04-2.92851E+06
 -1       213-7.32911E+06 1.69991E+05 2.13452E+05-1.70350E+06-7.69742E+04-6.87777E+06
 -1       214-4.78065E+06-1.82666E+05 4.89643E+05-2.39834E+05-6.02537E+04-2.35197E+06
 -1       215 1.44729E+06-1.34523E+05 1.16704E+04-1.53364E+06 3.95051E+04-4.55242E+06
 -1       216-1.24337E+05 7.84880E+04-2.89219E+05-2.17163E+06-6.39008E+04-7.62524E+06
 -1       217 1.83921E+05 2.57251E+05-5.83160E+05 9.66186E+04 1.09863E+05 3.53826E+05
 -1       218-1.61190E+06 5.21699E+05-1.18518E+06-3.04084E+05-7.15830E+04-2.52236E+06
 -1       219 4.32121E+06 9.70178E+04-4.38992E+03-7.43842E+05 1.11488E+04-4.45110E+06
 -1       220 3.29579E+06-7.29137E+05 4.45473E+05 1.21012E+05-1.27693E+05 2.70464E+05
 -1       221-1.33785E+06-2.88880E+05 3.38492E+05-1.57188E+06 3.71307E+03-5.55187E+06
 -1       222-2.98705E+05-7.39524E+05 1.41887E+06 3.12580E+05 1.47007E+05-1.41963E+05
 -1       223 1.00280E+07 6.49410E+05-3.90426E+05-3.00154E+06-2.72409E+05-7.46539E+06
 -1       224 7.65936E+06-7.71956E+05 1.27227E+06-1.05206E+06 3.71555E+04-2.08474E+06
 -1       225 1.02907E+07-1.16817E+06 7.89606E+05-1.51499E+05-1.36020E+05 6.37807E+05
 -1       226 5.16311E+06-8.14826E+05 8.59408E+05 6.25411E+05-9.46286E+04 1.36966E+06
 -1       227 1.76956E+07-4.09241E+05-2.62900E+05-1.56411E+06-1.70822E+05-5.02258E+06
 -1       228 6.83708E+06-5.37272E+05 3.23956E+05-2.16038E+06 3.78545E+04-4.39545E+06
 -1       229 1.19032E+07-9.67387E+05 7.31127E+05-1.09825E+06-6.51201E+04-1.06925E+06
 -1       230 1.24036E+07-5.83482E+05 7.80575E+05-2.46303E+05 2.08404E+05 1.61090E+04
 -1       231 1.32139E+07-6.68724E+04 8.68782E+04-1.77186E+06 1.61801E+05-2.96794E+06
 -1       232-2.45144E+06-4.07307E+05 6.15725E+05 5.47577E+05-1.96058E+05 1.64816E+06
 -1       233 1.78495E+07-5.83743E+05 6.46184E+05-4.52085E+05-1.01087E+04-2.53634E+06
 -1       234 1.14093E+07-6.18277E+05 4.73693E+04 1.39570E+05 1.16618E+05 1.35125E+06
 -1       235 1.01285E+07-3.09947E+05 2.84406E+05-5.73424E+05 2.53081E+03-3.98700E+06
 -1       236 5.88139E+06-5.12069E+04-2.19692E+05-1.08877E+03 1.87355E+05 2.45159E+04
 -1       237 8.41954E+05-8.48246E+05 1.59985E+05 4.10436E+05 4.75092E+05 1.42304E+06
 -1       238 9.42154E+06-1.46328E+06 4.51756E+05 3.80957E+05-9.87772E+04 1.22577E+06
 -1       239 1.04784E+07 3.58487E+05 5.35222E+05-2.07828E+06-7.80084E+04-9.44233E+06
 -1       240 4.55773E+06 7.53065E+05 1.10384E+06-2.22642E+06-2.37019E+03-9.91152E+06
 -1       241-4.95331E+06 1.48110E+06 6.35701E+05 2.41573E+05-5.56535E+05 1.25584E+06
 -1       242-2.92866E+06 1.22700E+05 8.49783E+05 2.51365E+05-7.97714E+05 1.29580E+06
 -1       243-5.28454E+06 3.94254E+05 3.54792E+04 4.07467E+05-4.35531E+05 1.65913E+06
 -1       244-3.41630E+06 2.57758E+06-1.14285E+05 4.87689E+05-4.10346E+05 1.06521E+06
 -1       245-1.64551E+06 5.55622E+05 1.89103E+05 4.11976E+05-6.76073E+05 1.26757E+06
 -1       246-9.89082E+06-1.50691E+06-3.65943E+05-4.45282E+06-1.04218E+04-6.36525E+06
 -1       247-8.89530E+06 3.73222E+05 1.35474E+05-3.13062E+06 1.94697E+05-5.71406E+06
 -1       248-4.55656E+06-9.79920E+05-2.50208E+05-3.41528E+06 2.88896E+04-9.21238E+06
 -1       249-7.56823E+06-1.12906E+06-7.63259E+05-3.31697E+06 1.76675E+05-7.43937E+06
 -1       250-9.37294E+06-1.41043E+06-2.69404E+05-4.66621E+06-6.81169E+04-7.85374E+06
 -1       251-1.34677E+06 3.29505E+05-1.74345E+05 5.31003E+05 5.03712E+05 1.32029E+06
 -1       252 3.27521E+06-4.70290E+05-8.85453E+03 2.67413E+05 6.10548E+05 7.81882E+05
 -1       253 6.61328E+06 7.62563E+04 2.92805E+05-1.78191E+06 8.45737E+03-7.40548E+06
 -1       254 8.56324E+06 2.08392E+05-1.79053E+05-2.80418E+06 7.36839E+04-6.09727E+06
 -1       255-1.80486E+07 1.14287E+05-3.93773E+05-1.00021E+06-1.19489E+05-3.76794E+06
 -1       256-7.47664E+06 1.32868E+06-5.70438E+05-5.44759E+05-4.73386E+04-2.79033E+06
 -1       257-2.21981E+06-7.99426E+04 2.32577E+05-3.31349E+06-6.37176E+03-9.75417E+06
 -1       258 2.59895E+06 6.26482E+05 9.27511E+05-3.20537E+06-2.64905E+05-9.52712E+06
 -1       259-2.39500E+06-8.55169E+05-4.04364E+05-2.97686E+06 2.53187E+05-1.01714E+07
 -1       260-1.24780E+07-7.69612E+05-8.44253E+05-1.42391E+06 3.24193E+04-7.21973E+06
 -1       261-1.32536E+07 1.36275E+05-3.29484E+05-1.74502E+06 5.37963E+04-4.18860E+06
 -1       262-5.86772E+06-6.40390E+04-2.97031E+05-3.07929E+06 1.73863E+05-6.07796E+06
 -1       263 4.63559E+05 4.84933E+05-8.30934E+05 5.76652E+05 1.48883E+05 1.56740E+06
 -1       264 2.67793E+06-5.86632E+05-6.39271E+05 3.82661E+05 4.08508E+05 1.35337E+06
 -1       265 7.98328E+06 1.56676E+05-1.87133E+05-3.27191E+06-1.10412E+05-6.92585E+06
 -1       266 8.61839E+06 7.88459E+05-8.36144E+04-3.70037E+06 3.88977E+04-8.01344E+06
 -1       267-1.51634E+06-5.61312E+05 3.35374E+05-2.14384E+06-2.83266E+04-8.46897E+06
 -1       268-7.20835E+06 1.37467E+05 4.73296E+05-2.08681E+06 6.92064E+03-9.56757E+06
 -1       269-1.20117E+07 8.12961E+05-3.47793E+05 2.93185E+05-1.47463E+05 1.21306E+06
 -1       270 1.23725E+07 1.33777E+06 3.87299E+05-3.14812E+06 2.15861E+04-7.20019E+06
 -1       271-9.47547E+06 1.02403E+06-1.55900E+05-1.32303E+06 4.18587E+04-2.76710E+06
 -1       272 1.42424E+07 1.47776E+06 8.27035E+05-1.19940E+06 3.00126E+05-7.08949E+06
 -1       273-1.38891E+07 1.04483E+06-1.01859E+05-1.06523E+05-1.73447E+04 4.12843E+05
 -3
    1PSTEP                        15           1           1          
    1PGM                1.000000E+00                                  
    1PGK                8.098942E+11                                  
    1PHID                         -1                                  
    1PSUBC                         0                                  
    1PMODE                         5                                  
  100CL  105 1.43230E+05         273                     2    5MODAL      1
 -4  TOSTRAIN    6    1
 -5  EXX         1    4    1    1
 -5  EYY         1    4    2    2
 -5  EZZ         1    4    3    3
 -5  EXY         1    4    1    2
 -5  EYZ         1    4    2    3
 -5  EZX         1    4    3    1
 -1         1 2.13915E+00-6.38724E-01-1.57788E+00 5.84435E-01-4.95233E-01 8.11017E-01
 -1         2-4.29445E+00 1.51378E+00 2.70805E+00 4.25781E-01-1.09241E+00 3.09421E-01
 -1         3 4.19432E+00-2.33764E+00-1.49483E+00-5.04789E-01 5.87840E-01 1.37961E+00
 -1         4-1.66346E+00 4.96606E-01 1.65517E+00 7.66926E-01 6.75877E-01 4.95185E-01
 -1         5-4.99596E+00 3.61498E-05 9.69872E-05-4.32304E+01 7.97408E-06-6.32500E+01
 -1         6 6.07565E+00-1.13909E-04-1.46771E-04 4.29148E+00-2.13116E-05-4.71661E+01
 -1         7 1.77026E+01-7.78141E+00-3.53927E-01-3.03251E+00 7.55985E+00-4.29360E+01
 -1         8 1.93159E+01 2.53229E+00-1.07822E-04-4.15709E+01 1.50714E+00-6.37376E+01
 -1         9 3.70896E+01-4.41722E-05-8.06532E-05-3.57978E+01 6.32213E-06-4.79759E+01
 -1        10-3.73437E+01 3.80394E+00 6.91907E+00-2.01881E+01 6.54430E-01-4.40424E+01
 -1        11-1.30167E+02 4.03208E+01 4.14162E+01 2.82535E+00-3.87445E-01-9.85271E+00
 -1        12-1.03365E+02 3.22233E+01 2.74019E+01 4.08255E-01 3.23859E+00 9.53445E+00
 -1        13-1.52147E+01 2.13646E+01 4.93014E-01 4.34811E+00-1.24234E+00-9.31017E-01
 -1        14-1.86298E+01 2.16558E+01 2.27060E+00 3.05847E+00-4.94627E+00 1.73983E+00
 -1        15-6.48532E+01 2.02336E+01 2.28868E+01-1.06804E+01 2.83782E+00-1.89267E+01
 -1        16-4.42765E+01 1.74161E+01 7.04918E+00 9.36920E+00-1.62258E+00 1.19633E+01
 -1        17-1.61412E+00 7.93825E-05 1.07860E-04-2.03738E+01-3.47114E-07-3.81125E+01
 -1        18-8.64732E+00 1.43858E-02-2.25043E+00-3.99917E+01-4.31603E-01-4.76182E+01
 -1        19 6.43103E+01-1.90695E+01-2.05725E+01-1.32604E+01 2.36545E-01-1.51725E+01
 -1        20 4.73549E+01-1.71442E+01-1.03528E+01 6.81025E+00 9.91406E-01 9.93927E+00
 -1        21 1.03890E+01-2.04768E+01 1.52786E+00 3.58511E+00 3.77740E+00-1.18677E+00
 -1        22 1.92684E+01-2.16320E+01-2.26986E+00 7.11920E+00 6.64010E-01 2.59533E+00
 -1        23 1.41315E+02-4.12851E+01-4.21672E+01-9.90952E-01-1.37392E+00-8.04648E+00
 -1        24 1.03015E+02-3.09426E+01-2.81313E+01-1.30485E+00-2.11173E+00 1.02433E+01
 -1        25-8.59136E+00 1.69072E+00 7.60983E+00 4.97634E-01-5.80913E+00 1.49414E+01
 -1        26 5.97919E-01-2.28864E+00 7.83102E+00-1.60356E+00-6.35220E+00 8.94748E+00
 -1        27 2.25870E+01 4.88172E+00-7.17779E+00-2.31508E+01 7.01934E-03-9.33479E+01
 -1        28-3.06826E+01 9.39916E-01 2.53861E+00-9.90556E+00 1.69471E+00-8.05456E+01
 -1        29-1.80399E+00 2.76957E+00-6.11691E+00 1.57330E-01 5.29250E+00 1.06503E+01
 -1        30 6.56524E+00-1.25249E+00-4.72650E+00 5.18919E-01 5.13423E+00 9.93546E+00
 -1        31 3.47452E+01 5.81240E-01-5.08385E+00-2.70520E+00 4.42515E-01-7.78520E+01
 -1        32-3.10417E+01 1.12516E+00 3.43787E+00-2.48641E+01-6.89975E-01-8.67945E+01
 -1        33-7.14444E+01 1.92508E+01 2.41892E+01-3.20231E+01-1.31895E-01-1.57240E+01
 -1        34-1.22551E+02 3.88878E+01 3.45118E+01-5.82363E+00 1.41664E-01-3.75467E+00
 -1        35-9.84563E+01 3.94350E+01 2.16936E+01 1.35796E+00 4.11354E-01 1.23168E+01
 -1        36 9.68746E+01-2.81632E+01-3.29353E+01-1.71338E+01 8.39648E-01-2.15969E+01
 -1        37 9.68292E+01-3.34538E+01-2.43591E+01-1.29265E+01-6.64995E-01-1.96781E+00
 -1        38 9.79771E+01-3.58735E+01-2.45945E+01-2.77418E-01 2.34062E-01 6.48157E+00
 -1        39-1.31663E+01-2.28363E+00 1.05689E+01 7.66704E-01 1.08234E+00-2.06665E+01
 -1        40-3.59815E+01 9.25676E+00 1.27254E+01 1.67325E+00-9.91359E-01 1.34521E+01
 -1        41-6.25980E+01 2.06456E+01 1.91440E+01-5.89461E+00-8.28533E-01-4.51556E+01
 -1        42 7.67496E+01-2.52458E+01-2.11964E+01-4.38173E+00-1.76734E+00-4.62307E+01
 -1        43 3.18021E+01-8.13288E+00-1.25453E+01 2.33816E+00 2.56778E-01 1.00625E+01
 -1        44 1.50620E+01-2.68416E+00-6.85285E+00-6.98616E+00-5.30131E-02-5.43152E+01
 -1        45 1.67109E+00-4.47618E+00-1.87794E+00 2.31571E+00 6.56038E+00 7.62351E+00
 -1        46-3.99829E+00 6.86902E+00 3.28114E+00 1.76154E+00 4.85481E-01 3.89480E+00
 -1        47-3.83450E-01 3.63318E-01 3.37877E+00 1.89700E+00-7.43065E+00 4.20283E+00
 -1        48 2.93626E+01-2.03965E+00-3.08915E+00-2.17489E+01 6.70771E-02-7.10777E+01
 -1        49-2.47207E+01-5.43964E-02 4.16402E+00-2.83034E+01 3.69977E-01-6.87815E+01
 -1        50-6.82628E+00 1.37101E+00 1.66135E+00-2.69847E+01-2.41111E-01-7.81757E+01
 -1        51 7.56120E+00-8.03782E+00 3.43007E+00 3.81517E+00-1.45166E+00 9.64249E+00
 -1        52-2.26487E+01 1.34731E+01 1.79772E+00 3.38216E+00-4.44572E-01 1.03444E+01
 -1        53 2.67861E+01-1.00151E+01-6.50634E+00-2.43479E+00 9.45422E-01-7.97641E+00
 -1        54-1.25535E+01 3.88859E+00 4.18583E+00-1.67731E+01 1.59859E-01-4.89982E+01
 -1        55 3.43298E+01-3.92654E-05-8.29635E-05-4.01891E+01-7.10744E-06-5.48682E+01
 -1        56 2.13121E+01-4.90790E-05-7.83429E-05-3.02922E+01 1.97517E-05-4.71819E+01
 -1        57 2.05705E+00-1.13909E-04-1.46771E-04-6.68275E+00-2.13116E-05-4.59286E+01
 -1        58-6.57960E+01 2.08032E+01 2.68048E+01 5.96767E+00 3.89214E+00-2.73571E+01
 -1        59-1.36971E+02 4.06463E+01 3.58733E+01 1.55501E+00-3.00448E-01 2.60305E+00
 -1        60-5.05041E+01 1.38320E+01 1.40529E+01-7.66670E-01 4.90282E+00 4.32095E+00
 -1        61-9.64511E+00 1.28335E+01-5.13981E-01 1.50353E+00 4.22772E-01-1.32485E+00
 -1        62-1.63653E+01 2.37937E+01 1.90235E+00 4.69615E+00-1.30545E+00-8.75348E-02
 -1        63-6.43768E+00 1.09988E+01 4.29975E-01 3.66408E+00-5.46146E+00-1.23185E+00
 -1        64-3.51561E+01 1.33898E+01 1.55178E+01-2.47789E+01 3.28779E+00-4.53855E+01
 -1        65-6.21078E+01 1.90798E+01 1.46174E+01-3.24981E-01 9.93427E-01 2.35375E-01
 -1        66-2.38401E+01 6.43439E+00 8.31515E+00 6.49053E+00-3.65143E-01 6.63841E+00
 -1        67-2.16148E+00 8.75359E-05 1.03327E-04-1.03700E+01-1.14107E-05-4.18553E+01
 -1        68-5.38376E+00 7.15114E-05 1.07898E-04-2.81512E+01 2.17790E-05-4.26631E+01
 -1        69-2.61840E+01 3.61498E-05 9.69872E-05-3.96568E+01 7.97408E-06-5.63201E+01
 -1        70 3.22902E+01-6.60205E+00-1.77128E+01-2.96753E+01-1.45631E+00-4.05770E+01
 -1        71 6.30661E+01-2.13526E+01-1.49292E+01-6.95996E-01 2.91668E+00-3.01843E+00
 -1        72 2.34879E+01-4.76232E+00-8.98942E+00 5.22831E+00 2.08831E+00 6.16610E+00
 -1        73 5.80615E+00-1.16425E+01 1.53305E+00 1.86155E+00 2.51366E+00-1.21001E+00
 -1        74 1.10537E+01-2.31119E+01 2.76787E+00 7.79750E+00 5.06658E+00 1.69430E+00
 -1        75 1.00573E+01-1.25387E+01-5.49227E-01 2.44578E+00-1.81357E+00-3.08355E-01
 -1        76 6.49395E+01-2.38731E+01-2.15488E+01 2.60886E+00 5.28233E+00-1.69845E+01
 -1        77 1.37179E+02-3.91039E+01-3.90538E+01-1.45645E+00-1.73306E+00 3.25524E+00
 -1        78 5.09928E+01-1.46050E+01-1.60403E+01-1.80347E+00-1.82104E+00 5.11896E+00
 -1        79-7.98027E+00 1.00471E+00 6.53864E+00 1.08975E-01-2.43181E+00 7.27962E+00
 -1        80-1.81412E+00-7.97340E-02 6.01088E+00-2.33487E-01-6.20928E+00 1.37146E+01
 -1        81 1.96331E+00-1.85296E+00 4.58971E+00-1.34169E+00-4.47843E+00 5.65408E+00
 -1        82 2.75602E+01 3.61498E-05 9.69872E-05-3.83156E+01 7.97408E-06-7.20523E+01
 -1        83 4.11601E+00-1.09209E-04-8.60753E-05-1.76704E+01-4.23930E-05-8.67776E+01
 -1        84-2.08895E+01-1.13909E-04-1.46771E-04-7.42720E-01-2.13116E-05-6.04866E+01
 -1        85-2.70631E+00 1.70286E+00-2.27986E+00-7.74005E-01 3.74266E+00 6.77527E+00
 -1        86 3.27613E+00 2.70082E+00-9.41233E+00 1.77475E+00 8.18142E+00 1.40726E+01
 -1        87 7.04981E+00-1.92061E+00-3.10880E+00 5.36743E-01 3.17600E+00 6.33448E+00
 -1        88 3.27454E+01-2.90064E+00 1.56005E-04-2.70599E+00 3.99514E+00-6.22590E+01
 -1        89-1.50660E+00-1.70139E-06 7.23146E-06-1.80229E+01 1.29639E-05-8.63502E+01
 -1        90-1.29280E+01 2.37413E+00-1.20251E-04-3.31118E+01 1.87277E+00-7.29941E+01
 -1        91-2.38986E+01 8.26539E+00 1.45189E+01-3.66115E+01 4.75198E-01-3.89330E+01
 -1        92-6.34616E+01 1.87325E+01 2.50172E+01-2.51193E+01-8.67716E-02-1.59497E+01
 -1        93-2.42395E+01 8.06717E+00 1.47297E+01-3.38831E+01-1.15461E+00-2.88615E+01
 -1        94-4.61229E+01 1.21862E+01 1.64082E+01-3.33149E+01-4.06255E+00-2.75023E+01
 -1        95-7.75711E+01 2.06065E+01 2.78826E+01-1.22673E+00 2.90480E+00-2.20811E+01
 -1        96-1.30369E+02 3.91439E+01 3.55384E+01-6.88079E-01-1.71639E+00-6.42336E+00
 -1        97-1.21803E+02 3.74815E+01 3.56180E+01-2.00292E+00-8.90074E-02 3.86921E+00
 -1        98-5.57291E+01 2.53710E+01 1.15328E+01 2.04288E+00-5.31242E-01 5.45151E+00
 -1        99-3.35462E+01 1.98042E+01 4.92238E+00 7.43864E+00-7.67133E-01 4.94226E+00
 -1       100-5.79287E+01 3.12870E+01 1.07125E+01 4.66770E+00-1.61692E+00 5.91981E+00
 -1       101-5.39874E+01 3.06695E+01 8.21067E+00 5.37730E+00-1.31596E+00 5.52156E+00
 -1       102-7.76790E+01 2.93794E+01 1.67248E+01 7.10976E+00-7.78742E-02 1.30322E+01
 -1       103-9.42318E+01 3.12617E+01 2.28226E+01-5.56398E+00 4.87224E-01 3.86695E+00
 -1       104-7.50960E+01 2.38382E+01 2.17960E+01-1.62221E+01 4.47343E-01-2.17723E+01
 -1       105-7.79251E+01 3.18947E+01 2.01682E+01 1.80726E+00-1.36754E+00 2.29792E+00
 -1       106-9.90683E+01 3.19133E+01 2.33210E+01-1.54574E+01 2.93232E-01-2.32147E-01
 -1       107-1.09360E+02 3.93587E+01 2.72251E+01-1.74374E+00 1.13915E+00 3.89922E+00
 -1       108-1.04132E+02 3.46862E+01 2.78626E+01-1.89925E+01 2.03411E+00-1.16835E+01
 -1       109 5.79680E+01-2.02938E+01-1.82338E+01-7.08180E+00 3.84202E+00-2.72959E+01
 -1       110 4.68008E+01-1.44977E+01-1.96985E+01-1.76067E+01 6.33935E-02-3.08395E+01
 -1       111 4.12730E+01-1.24291E+01-1.63858E+01-2.54151E+01-1.92476E+00-3.79033E+01
 -1       112 2.61446E+01-8.66416E+00-1.66833E+01-3.19332E+01-8.05792E-01-2.55680E+01
 -1       113 8.65681E+01-2.94004E+01-2.03776E+01 1.12826E+00-1.13772E+00 5.63169E+00
 -1       114 8.29285E+01-2.77703E+01-1.86202E+01-1.91692E+01 9.88411E-01-2.25766E+00
 -1       115 3.37280E+01-1.88418E+01-6.04589E+00 7.03962E+00 1.09254E+00 5.57594E+00
 -1       116 5.30080E+01-2.43671E+01-1.28259E+01 6.09182E-01-3.93110E-02 2.23623E+00
 -1       117 5.44561E+01-2.84386E+01-1.31648E+01 2.67503E+00 2.31678E-01 2.01227E+00
 -1       118 5.60983E+01-3.20052E+01-1.17364E+01 4.89338E+00-6.67817E-01 4.77809E+00
 -1       119 1.00878E+02-3.31808E+01-2.62745E+01-6.39611E-01-3.86337E-01 8.66142E+00
 -1       120 1.32487E+02-3.94909E+01-3.72170E+01-1.65935E+00 4.44470E-01 1.79632E+00
 -1       121 1.20429E+02-3.54914E+01-3.74917E+01-5.64431E+00-1.32717E+00-9.52917E+00
 -1       122 5.44740E+01-1.41590E+01-2.06624E+01-3.13989E+01-8.54634E-01-2.41511E+01
 -1       123 6.82959E+01-3.24127E+01-1.46293E+01 3.85445E+00-2.02122E-01 4.62720E+00
 -1       124 1.14058E+02-3.46850E+01-3.05535E+01-9.44712E+00 1.37615E+00-7.25215E+00
 -1       125 9.73380E+01-3.17052E+01-2.84554E+01-1.72208E+01 1.04333E+00-1.61028E+01
 -1       126 1.07971E+02-3.76787E+01-2.69145E+01-5.24090E+00-1.69588E-01 1.25892E+00
 -1       127 4.48746E+01-5.78593E+00-1.53004E+01-1.39403E+01-1.65062E+00-5.82278E+01
 -1       128 1.48508E+01-1.10415E+01-1.43125E+00-3.21254E+00 1.50082E+00-2.50109E+01
 -1       129 1.01691E+01-8.51509E+00 3.11929E+00 4.75228E+00 1.24043E+00 1.35190E-01
 -1       130 1.25281E+01-6.00866E+00 1.32925E-01 3.17918E+00-1.20188E+00 1.24939E+01
 -1       131-2.01686E+01 4.69186E+00 1.15608E+01 8.77685E-01-3.27341E+00 1.50456E+01
 -1       132-2.05889E+01 4.07983E+00 1.17459E+01-4.13272E-01-2.04182E+00 1.30463E+01
 -1       133-4.28960E+01 1.12765E+01 1.43411E+01-1.46176E+00 1.17650E+00 9.55764E+00
 -1       134-8.07999E+01 2.09972E+01 2.51082E+01-4.83741E+00 3.19605E+00-4.58518E+01
 -1       135-8.31425E+01 2.66736E+01 2.30522E+01-3.66403E+00 2.99266E-01-1.40902E+01
 -1       136-9.53688E+01 3.22017E+01 2.73815E+01-5.94784E+00-3.34627E+00-3.28573E+01
 -1       137-4.94013E+01 1.57607E+01 1.44811E+01-9.07722E+00 1.35827E+00-6.76875E+01
 -1       138-2.03821E+01 1.11687E+01 9.81333E+00-1.31491E+01 2.87083E+00-7.12963E+01
 -1       139-1.29973E+01-1.63941E-01 1.34836E+01 2.50472E+00-1.42783E+00 8.88823E+00
 -1       140-6.54240E+01 2.01680E+01 1.80425E+01 2.06756E+00 1.75351E+00 1.18305E+01
 -1       141 5.82498E+00 2.89920E+00-3.26014E+00-7.76834E+00 1.23438E-01-6.43064E+01
 -1       142-3.46418E+01 7.45641E+00 1.19979E+01-2.14914E+00-1.12444E-01-3.49473E+01
 -1       143-4.94028E+01 1.45745E+01 1.47375E+01-2.74697E+00-6.83656E-01-1.37283E+01
 -1       144-2.78638E+01 6.30674E+00 8.88133E+00 7.32056E-01 2.54597E+00 4.22102E-01
 -1       145 6.04340E+01-1.97038E+01-1.44327E+01-4.42044E+00 2.01947E+00-4.82619E+01
 -1       146 1.10474E+02-3.37459E+01-3.08161E+01-3.13982E+00-1.81373E+00-2.94256E+01
 -1       147 9.41689E+01-2.90281E+01-2.49094E+01-2.19543E+00-1.81110E+00-1.38377E+01
 -1       148 4.46549E+01-1.33956E+01-1.49498E+01-1.26003E+00 1.49017E+00 9.28315E+00
 -1       149 1.65646E+01-3.83199E+00-8.30503E+00 1.54953E+00 3.33065E+00 1.17828E+01
 -1       150 1.77405E+01-1.93921E+00-1.11859E+01 1.79108E+00 2.06967E+00 1.16303E+01
 -1       151-1.33774E+01 7.08482E+00-1.22014E+00 5.43743E+00 1.62776E+00 1.10698E+01
 -1       152-4.83644E+01 1.12135E+01 1.42934E+01-1.45702E+01 7.52841E-01-5.82329E+01
 -1       153-1.92494E+01 9.55069E+00 5.03871E+00-6.41234E+00 2.82847E+00-4.11164E+01
 -1       154-7.05199E+00 6.37886E+00-2.64205E+00-1.19070E-01-1.98050E+00-1.81285E+01
 -1       155-9.42447E+00-1.23848E+00 5.99162E-01-1.50597E+01-1.15040E+00-7.65934E+01
 -1       156 2.11693E+01-5.69126E+00-6.50062E+00-6.87079E+00-2.89436E+00-7.08972E+01
 -1       157 6.49690E+01-1.95013E+01-1.82963E+01 1.80029E+00 4.73866E-01 1.21017E+01
 -1       158 2.78184E+00 3.01585E+00-7.64204E+00 4.59414E+00-1.01071E+00 1.28907E+01
 -1       159 5.38177E+01-1.38462E+01-1.90924E+01-2.47233E+00-2.86251E+00-6.60441E+01
 -1       160 4.63984E+01-1.39281E+01-1.36670E+01-5.68928E+00-1.61087E-01-5.13930E+01
 -1       161 5.44483E+01-1.68083E+01-1.50034E+01-1.64534E+00-4.59668E-01-1.59370E+01
 -1       162 2.96370E+01-6.54555E+00-1.17582E+01-2.14097E+00-4.64505E-01-1.98880E+01
 -1       163 1.56206E+00-8.13716E+00-9.47694E-01 1.14370E+00 4.56816E+00 4.56586E+00
 -1       164-1.35841E+00-1.09666E+00-3.38234E+00 2.23803E+00 7.55019E+00 8.97299E+00
 -1       165 3.16526E+00-1.72980E+00-5.13049E+00 1.22574E+00 6.30721E+00 7.78984E+00
 -1       166-3.40154E+00 8.88265E+00-9.59992E-01 2.10325E+00 1.90117E+00 4.43419E+00
 -1       167-9.77273E+00 1.30169E+01 4.97308E+00 2.79865E+00 5.97401E-01 1.65095E+00
 -1       168-1.29656E+01 1.63140E+01 5.64086E+00 1.25349E+00-9.34024E-01 2.85462E+00
 -1       169-4.77135E+00 6.56811E+00 4.59466E+00 8.41462E-01-8.30864E+00 2.63332E+00
 -1       170 3.91819E+00-7.64152E+00 1.59721E+00 3.06222E+00-2.35174E+00 6.40042E+00
 -1       171-7.31939E-01 1.52497E-01 6.49960E+00 1.43605E+00-7.80813E+00 5.35566E+00
 -1       172-3.10697E+00 1.80675E+00 2.47456E+00 6.28753E-01-5.83958E+00 7.63275E+00
 -1       173 7.94028E+00-8.16415E+00-2.19703E+00 3.82492E+00-3.84441E+00 3.86881E+00
 -1       174 7.30670E+00-1.25948E+01-1.32767E+00 3.00378E+00 4.03917E+00 5.17040E+00
 -1       175 1.06000E+00-1.18309E+01 2.62804E+00 2.29728E+00 7.46145E+00 5.03450E+00
 -1       176 1.94853E-01 1.67875E+00 7.38136E-01 2.42848E-01 2.00139E+00 6.13228E+00
 -1       177 3.26102E+00 9.61186E-01-4.78426E+00 1.94266E+00 2.04601E+00 3.88192E+00
 -1       178-9.45791E+00 1.04715E+01 6.18011E+00 1.43476E+00-6.67471E+00 3.60379E+00
 -1       179-1.25790E+00 4.71284E+00 2.27485E+00 2.41977E+00-2.92514E+00 4.44818E+00
 -1       180 2.35034E+00-2.56828E+00-1.64022E+00 2.16361E+00-1.41712E+00 5.73438E+00
 -1       181 2.50305E+01 8.33181E-05 1.07841E-04-1.14670E+01-1.14102E-05-5.32714E+01
 -1       182 2.62692E+00-9.69458E-06 3.45315E-06-2.22525E+01 4.41408E-06-7.95500E+01
 -1       183 3.00938E+01 3.19671E-02-5.13035E+00-1.23838E+01 2.01405E-01-7.49842E+01
 -1       184 1.65108E+00-3.50495E-05-8.03650E-05-3.55452E+01-3.35882E-06-6.19836E+01
 -1       185 4.41081E+00-4.41722E-05-8.06532E-05-3.11539E+01 6.32213E-06-5.50914E+01
 -1       186-2.84001E+01-5.24559E-01 4.27552E+00-2.90696E+01-1.57448E+00-5.76713E+01
 -1       187-3.64876E+01-3.27526E-01 5.08009E+00-8.74335E+00 2.21909E+00-6.17850E+01
 -1       188 3.42745E+00 1.89398E+00-3.12461E+00-3.60536E+01 4.02946E-01-6.89185E+01
 -1       189 6.45681E+00 1.53669E+00-1.84624E+00-2.81658E+01 7.61589E-01-8.25311E+01
 -1       190-1.60353E+01-8.33509E-05-8.68213E-05-1.70475E+01-1.50396E-05-7.73832E+01
 -1       191 1.37470E+00 1.11200E+00 1.71426E-01-3.24811E+01-1.59561E+00-6.54591E+01
 -1       192 1.47357E+01 7.53059E-05 1.10126E-04-2.12005E+01 5.18466E-06-5.20779E+01
 -1       193-2.59845E+01-2.68765E-02 5.30289E+00-2.91105E+01-3.97862E-01-7.63759E+01
 -1       194-3.78845E+01 2.64131E+00 5.55893E-02-2.26588E+01 7.50655E-01-6.72054E+01
 -1       195 1.09660E+01 6.12460E-05 9.26800E-05-2.89779E+01 8.12517E-06-5.66285E+01
 -1       196 1.44963E+01-1.34894E-01-1.88283E+00-2.57153E+01 5.89541E-01-7.53923E+01
 -1       197 4.00639E+00-1.56506E+00-1.60851E-02-2.57754E+01-5.00502E-01-7.33815E+01
 -1       198-1.57338E+01-9.27365E-06-3.30964E-05-2.83720E+01-8.29566E-07-7.39076E+01
 -1       199-3.46739E+01 1.72565E+01 4.01071E+00 6.10123E+00-3.00812E-01 1.06530E+01
 -1       200-1.81754E+01 1.80138E+01-3.78499E-01 4.45264E+00-9.94422E-01 5.54792E+00
 -1       201-5.65837E+01 2.75604E+01 1.05703E+01 2.23395E+00 1.07158E+00 8.99853E+00
 -1       202-8.55002E+00 6.86780E+00-8.66292E-01 2.86755E+00 3.07054E+00 9.93702E+00
 -1       203-1.30217E+01 9.78976E+00 2.11328E+00 3.54589E+00-3.49235E-03 8.37996E+00
 -1       204 4.20415E+01-1.97297E+01-1.11363E+01 1.71016E+00 2.94424E+00 7.49276E+00
 -1       205 4.41229E+01-1.58891E+01-1.40873E+01 5.29181E-01 2.36477E+00 7.71755E+00
 -1       206 2.96286E-01-3.79475E+00 6.03808E+00 2.97918E+00-4.36639E+00 1.20932E+01
 -1       207 1.32685E+01-1.42563E+01 2.28279E-01 5.55689E+00-5.76332E-01 6.72710E+00
 -1       208 1.35161E+00-3.84533E+00 4.71999E+00 3.31497E+00-4.00787E+00 7.49860E+00
 -1       209-1.77763E+01 8.82707E+00 1.80799E+00-7.73713E+00 1.92806E-01-1.69189E+01
 -1       210-6.11998E+00 1.93896E+00 2.08701E+00 3.14669E+00-1.64532E+00 1.04451E+01
 -1       211-3.92581E+01 1.52380E+01 9.22312E+00-2.26431E+00-5.42501E-01-1.37577E+01
 -1       212-7.07999E-01-1.30598E+00 1.64291E+00-6.85185E+00-4.91559E-01-1.90353E+01
 -1       213-3.72207E+01 1.15234E+01 1.18059E+01-1.10727E+01-5.00333E-01-4.47055E+01
 -1       214-2.43637E+01 5.52318E+00 9.89319E+00-1.55892E+00-3.91649E-01-1.52878E+01
 -1       215 7.42072E+00-2.86106E+00-1.91080E+00-9.96865E+00 2.56783E-01-2.95907E+01
 -1       216-3.05588E-01 1.01277E+00-1.37732E+00-1.41156E+01-4.15355E-01-4.95640E+01
 -1       217 1.40846E+00 1.88512E+00-3.57756E+00 6.28021E-01 7.14110E-01 2.29987E+00
 -1       218-7.06428E+00 6.80411E+00-4.29059E+00-1.97655E+00-4.65290E-01-1.63953E+01
 -1       219 2.14671E+01-5.99014E+00-6.64929E+00-4.83497E+00 7.24670E-02-2.89321E+01
 -1       220 1.69044E+01-9.25758E+00-1.62261E+00 7.86577E-01-8.30006E-01 1.75802E+00
 -1       221-6.76366E+00 5.46350E-02 4.13255E+00-1.02172E+01 2.41349E-02-3.60872E+01
 -1       222-2.51254E+00-5.37786E+00 8.65168E+00 2.03177E+00 9.55544E-01-9.22759E-01
 -1       223 4.97516E+01-1.12093E+01-1.79683E+01-1.95100E+01-1.77066E+00-4.85251E+01
 -1       224 3.75463E+01-1.72572E+01-3.96975E+00-6.83838E+00 2.41511E-01-1.35508E+01
 -1       225 5.20213E+01-2.24613E+01-9.73576E+00-9.84744E-01-8.84130E-01 4.14575E+00
 -1       226 2.57487E+01-1.31079E+01-2.22538E+00 4.06517E+00-6.15086E-01 8.90280E+00
 -1       227 8.94863E+01-2.81953E+01-2.72441E+01-1.01667E+01-1.11034E+00-3.26467E+01
 -1       228 3.45054E+01-1.34279E+01-7.82993E+00-1.40425E+01 2.46054E-01-2.85704E+01
 -1       229 5.98701E+01-2.37884E+01-1.27480E+01-7.13865E+00-4.23281E-01-6.95014E+00
 -1       230 6.17226E+01-2.26937E+01-1.38274E+01-1.60097E+00 1.35463E+00 1.04708E-01
 -1       231 6.60396E+01-2.02856E+01-1.92862E+01-1.15171E+01 1.05171E+00-1.92916E+01
 -1       232-1.25698E+01 7.17040E-01 7.36675E+00 3.55925E+00-1.27438E+00 1.07131E+01
 -1       233 8.91540E+01-3.06623E+01-2.26678E+01-2.93855E+00-6.57063E-02-1.64862E+01
 -1       234 5.79030E+01-2.02764E+01-1.59497E+01 9.07202E-01 7.58019E-01 8.78312E+00
 -1       235 5.06809E+01-1.71691E+01-1.33058E+01-3.72726E+00 1.64503E-02-2.59155E+01
 -1       236 2.98133E+01-8.74859E+00-9.84374E+00-7.07700E-03 1.21781E+00 1.59353E-01
 -1       237 5.24216E+00-5.74414E+00 8.09362E-01 2.66784E+00 3.08810E+00 9.24975E+00
 -1       238 4.86250E+01-2.21263E+01-9.67862E+00 2.47622E+00-6.42052E-01 7.96752E+00
 -1       239 5.10515E+01-1.47280E+01-1.35792E+01-1.35088E+01-5.07054E-01-6.13752E+01
 -1       240 2.00033E+01-4.72702E+00-2.44701E+00-1.44718E+01-1.54062E-02-6.44249E+01
 -1       241-2.79418E+01 1.38819E+01 8.38681E+00 1.57023E+00-3.61748E+00 8.16293E+00
 -1       242-1.61020E+01 3.73181E+00 8.45785E+00 1.63388E+00-5.18514E+00 8.42273E+00
 -1       243-2.70673E+01 9.84487E+00 7.51283E+00 2.64853E+00-2.83095E+00 1.07844E+01
 -1       244-2.07764E+01 1.81838E+01 6.86645E-01 3.16998E+00-2.66725E+00 6.92385E+00
 -1       245-9.34462E+00 4.96272E+00 2.58034E+00 2.67785E+00-4.39447E+00 8.23923E+00
 -1       246-4.66448E+01 7.85062E+00 1.52669E+01-2.89433E+01-6.77414E-02-4.13741E+01
 -1       247-4.52396E+01 1.50059E+01 1.34605E+01-2.03491E+01 1.26553E+00-3.71414E+01
 -1       248-2.09376E+01 2.31055E+00 7.05368E+00-2.21993E+01 1.87782E-01-5.98805E+01
 -1       249-3.50027E+01 6.85195E+00 9.22964E+00-2.15603E+01 1.14839E+00-4.83559E+01
 -1       250-4.43449E+01 7.41135E+00 1.48280E+01-3.03303E+01-4.42760E-01-5.10493E+01
 -1       251-6.96660E+00 3.92920E+00 6.54174E-01 3.45152E+00 3.27413E+00 8.58191E+00
 -1       252 1.70948E+01-7.25099E+00-4.25166E+00 1.73819E+00 3.96856E+00 5.08223E+00
 -1       253 3.25128E+01-9.97784E+00-8.57028E+00-1.15824E+01 5.49729E-02-4.81356E+01
 -1       254 4.27722E+01-1.15343E+01-1.40527E+01-1.82272E+01 4.78945E-01-3.96322E+01
 -1       255-8.98239E+01 2.82350E+01 2.49326E+01-6.50139E+00-7.76676E-01-2.44916E+01
 -1       256-3.85206E+01 1.87140E+01 6.36975E+00-3.54093E+00-3.07701E-01-1.81372E+01
 -1       257-1.13280E+01 2.58113E+00 4.61251E+00-2.15377E+01-4.14164E-02-6.34021E+01
 -1       258 1.06638E+01-2.15729E+00-2.00597E-01-2.08349E+01-1.72189E+00-6.19263E+01
 -1       259-1.00857E+01-7.67960E-02 2.85343E+00-1.93496E+01 1.64572E+00-6.61143E+01
 -1       260-5.99692E+01 1.61353E+01 1.56502E+01-9.25538E+00 2.10726E-01-4.69282E+01
 -1       261-6.59784E+01 2.10561E+01 1.80286E+01-1.13426E+01 3.49676E-01-2.72259E+01
 -1       262-2.87970E+01 8.92693E+00 7.41248E+00-2.00154E+01 1.13011E+00-3.95067E+01
 -1       263 2.83680E+00 2.97573E+00-5.57741E+00 3.74824E+00 9.67737E-01 1.01881E+01
 -1       264 1.52285E+01-5.99115E+00-6.33331E+00 2.48730E+00 2.65530E+00 8.79688E+00
 -1       265 3.99621E+01-1.09108E+01-1.31456E+01-2.12674E+01-7.17678E-01-4.50180E+01
 -1       266 4.20347E+01-8.85987E+00-1.45283E+01-2.40524E+01 2.52835E-01-5.20874E+01
 -1       267-7.24278E+00-1.03512E+00 4.79334E+00-1.39350E+01-1.84123E-01-5.50483E+01
 -1       268-3.69579E+01 1.07899E+01 1.29728E+01-1.35642E+01 4.49842E-02-6.21892E+01
 -1       269-6.07564E+01 2.26041E+01 1.50592E+01 1.90570E+00-9.58511E-01 7.88490E+00
 -1       270 5.92751E+01-1.24509E+01-1.86290E+01-2.04628E+01 1.40309E-01-4.68012E+01
 -1       271-4.86796E+01 1.95672E+01 1.18977E+01-8.59969E+00 2.72082E-01-1.79861E+01
 -1       272 6.77547E+01-1.52153E+01-1.94450E+01-7.79612E+00 1.95082E+00-4.60817E+01
 -1       273-7.08599E+01 2.62106E+01 1.87571E+01-6.92401E-01-1.12741E-01 2.68348E+00
 -3
    1PSTEP                        16           1           1          
    1PGM                1.000000E+00                                  
    1PGK                8.844680E+11                                  
    1PHID                         -1                                  
    1PSUBC                         0                                  
    1PMODE                         6                                  
  100CL  106 1.49679E+05         273                     2    6MODAL      1
 -4  DISP        4    1
 -5  D1          1    2    1    0
 -5  D2          1    2    2    0
 -5  D3          1    2    3    0
 -5  ALL         1    2    0    0    1ALL
 -1         1-8.88492E+02 2.87414E+02-1.42709E+02
 -1         2-3.92531E+02 1.87314E+02 2.94311E+00
 -1         3 4.22650E+02 1.88697E+02 3.29050E+01
 -1         4 8.20832E+02 2.42194E+02-1.48229E+02
 -1         5 0.00000E+00 0.00000E+00 0.00000E+00
 -1         6 0.00000E+00 0.00000E+00 0.00000E+00
 -1         7 0.00000E+00 0.00000E+00 0.00000E+00
 -1         8 0.00000E+00 0.00000E+00 0.00000E+00
 -1         9 0.00000E+00 0.00000E+00 0.00000E+00
 -1        10 0.00000E+00 0.00000E+00 0.00000E+00
 -1        11-9.40031E+01-3.89656E+02 2.88611E+02
 -1        12-3.23462E+02-2.88760E+02 2.68034E+02
 -1        13 4.84083E+02 2.39242E+02-1.62812E+02
 -1        14 9.68848E+01 2.33243E+02-1.44751E+02
 -1        15 2.33333E+02-2.63396E+02-2.11335E+01
 -1        16 6.98167E+02-9.22198E+01-6.23948E+01
 -1        17 0.00000E+00 0.00000E+00 0.00000E+00
 -1        18 0.00000E+00 0.00000E+00 0.00000E+00
 -1        19-2.11422E+02-2.66333E+02-5.06343E+00
 -1        20-7.04580E+02-1.61352E+02-6.82821E+01
 -1        21-3.17933E+01 2.07289E+02-8.62687E+01
 -1        22-4.15571E+02 2.53025E+02-1.32734E+02
 -1        23 9.67126E+01-3.96640E+02 2.78726E+02
 -1        24 3.43830E+02-2.79414E+02 2.49287E+02
 -1        25-7.47163E+02 3.30484E+02-9.95278E+01
 -1        26-6.21647E+02 3.07025E+02-2.46067E+01
 -1        27 0.00000E+00 0.00000E+00 0.00000E+00
 -1        28 0.00000E+00 0.00000E+00 0.00000E+00
 -1        29 6.26300E+02 3.19424E+02-6.29420E+00
 -1        30 5.25502E+02 2.16248E+02-3.82359E+01
 -1        31 0.00000E+00 0.00000E+00 0.00000E+00
 -1        32 0.00000E+00 0.00000E+00 0.00000E+00
 -1        33 1.34971E+02-3.24687E+02 4.87777E+01
 -1        34-7.35171E+00-4.34000E+02 1.53060E+02
 -1        35 3.42141E+02-2.42209E+02 6.58157E+00
 -1        36 5.30526E+01-3.89229E+02 1.25701E+02
 -1        37-2.55057E+02-3.96306E+02 3.00490E+01
 -1        38-1.27957E+01-3.21207E+02 1.02566E+02
 -1        39-4.08523E+02-2.49120E+02 8.40643E+01
 -1        40-5.28604E+02-8.83045E+01 1.15071E+02
 -1        41-1.70526E+02-3.08949E+02 2.15031E+02
 -1        42 1.11360E+02-3.06478E+02 1.94976E+02
 -1        43 4.94708E+02-9.81885E+01 7.05400E+01
 -1        44 1.39895E+02-2.56914E+02 8.53217E+01
 -1        45 1.10890E+02 3.02682E+02-9.11480E+01
 -1        46 2.44675E+02 2.92102E+02-1.38880E+02
 -1        47-2.49752E+02 3.18446E+02-1.13179E+02
 -1        48 0.00000E+00 0.00000E+00 0.00000E+00
 -1        49 0.00000E+00 0.00000E+00 0.00000E+00
 -1        50 0.00000E+00 0.00000E+00 0.00000E+00
 -1        51-2.65109E+02-1.05687E+02 2.15950E+01
 -1        52 1.15530E+02-1.21796E+02 1.24380E+01
 -1        53 9.96505E+01-2.89794E+02 1.00362E+02
 -1        54 1.10753E+01-3.33506E+02 1.17197E+02
 -1        55 0.00000E+00 0.00000E+00 0.00000E+00
 -1        56 0.00000E+00 0.00000E+00 0.00000E+00
 -1        57 0.00000E+00 0.00000E+00 0.00000E+00
 -1        58-2.24482E+01-2.02621E+02 1.64663E+02
 -1        59-2.16618E+02-4.18979E+02 3.14045E+02
 -1        60-3.80344E+02-5.93260E+01 1.33017E+02
 -1        61 6.49771E+02 2.42993E+02-1.56147E+02
 -1        62 3.09158E+02 2.42858E+02-1.58332E+02
 -1        63-1.54527E+02 1.97070E+02-6.48456E+01
 -1        64 5.32521E+01-1.41458E+02 1.86638E+00
 -1        65 4.66363E+02-2.47301E+02-4.56593E+01
 -1        66 7.82839E+02 9.06626E+01-7.44315E+01
 -1        67 0.00000E+00 0.00000E+00 0.00000E+00
 -1        68 0.00000E+00 0.00000E+00 0.00000E+00
 -1        69 0.00000E+00 0.00000E+00 0.00000E+00
 -1        70-5.25008E+01-1.51470E+02-6.51199E+00
 -1        71-4.60336E+02-2.96319E+02-4.48109E+01
 -1        72-8.29140E+02 5.59129E+01-1.03344E+02
 -1        73 1.92197E+02 1.93887E+02-3.10302E+01
 -1        74-2.23563E+02 2.32657E+02-1.12487E+02
 -1        75-6.45195E+02 2.67490E+02-1.24384E+02
 -1        76 2.19203E+01-2.15584E+02 1.59196E+02
 -1        77 2.27214E+02-4.22395E+02 2.95504E+02
 -1        78 4.05273E+02-4.56845E+01 1.46589E+02
 -1        79-8.20251E+02 3.09477E+02-1.30327E+02
 -1        80-6.91608E+02 3.22317E+02-5.14507E+01
 -1        81-5.22479E+02 2.46935E+02-4.15123E+00
 -1        82 0.00000E+00 0.00000E+00 0.00000E+00
 -1        83 0.00000E+00 0.00000E+00 0.00000E+00
 -1        84 0.00000E+00 0.00000E+00 0.00000E+00
 -1        85 5.40021E+02 2.56702E+02 2.24598E+01
 -1        86 6.14039E+02 2.82299E+02-2.09992E+01
 -1        87 7.12948E+02 2.33400E+02-1.18350E+02
 -1        88 0.00000E+00 0.00000E+00 0.00000E+00
 -1        89 0.00000E+00 0.00000E+00 0.00000E+00
 -1        90 0.00000E+00 0.00000E+00 0.00000E+00
 -1        91 5.33626E+01-1.47371E+02 5.85681E+00
 -1        92 2.10105E+02-3.02622E+02 4.91579E+00
 -1        93 4.05094E+01-1.87021E+02 2.88425E+01
 -1        94 1.60531E+01-2.11177E+02 5.53486E+01
 -1        95-7.82299E+01-2.26927E+02 1.34500E+02
 -1        96-1.25996E+02-4.43362E+02 2.27368E+02
 -1        97-1.31473E+02-3.91847E+02 2.10302E+02
 -1        98-1.62972E+02-6.74667E+01 6.46694E+01
 -1        99 6.29136E+02 6.00126E+01-8.61896E+01
 -1       100 2.59685E+02-3.57321E+01-3.76780E+01
 -1       101 4.35335E+02-7.50153E+00-6.58201E+01
 -1       102 5.10560E+02-1.84217E+02-4.17964E+01
 -1       103 3.66695E+02-3.20113E+02-1.63967E+00
 -1       104-2.99749E+01-3.33690E+02 1.32764E+02
 -1       105 4.73058E+01-1.89858E+02 5.64925E+01
 -1       106 2.43645E+02-3.68316E+02 4.36199E+01
 -1       107 1.45170E+02-3.58874E+02 7.31777E+01
 -1       108 7.66587E+01-4.08759E+02 9.73775E+01
 -1       109 5.70480E+01-1.78018E+02 8.89033E+01
 -1       110 3.18570E+01-1.98999E+02 5.68318E+01
 -1       111 2.31391E+00-2.16177E+02 4.46818E+01
 -1       112-8.73714E+01-2.01263E+02 1.57676E+01
 -1       113-4.57829E+02-3.09390E+02-1.27100E+01
 -1       114-2.88254E+02-3.51739E+02 8.14532E+00
 -1       115-6.10087E+02 2.12370E+01-7.90895E+01
 -1       116 1.86180E+02-5.23378E+01 7.22568E+01
 -1       117-2.08622E+01-6.82310E+01 1.36743E+01
 -1       118-2.11978E+02-4.40949E+01-2.19798E+01
 -1       119 1.57057E+02-3.13295E+02 1.73135E+02
 -1       120 1.45906E+02-4.45502E+02 2.15551E+02
 -1       121 1.11521E+02-3.90515E+02 1.96130E+02
 -1       122-8.78249E+01-3.09757E+02 3.52997E+01
 -1       123-3.76623E+02-1.43851E+02-2.22130E+01
 -1       124 2.74273E+01-4.45358E+02 1.43797E+02
 -1       125-7.49182E+01-4.25614E+02 9.02600E+01
 -1       126-1.44803E+02-3.71050E+02 7.11159E+01
 -1       127-6.02871E+01-1.45561E+02 3.32574E+01
 -1       128-3.13180E+02-2.75656E+02 3.68915E+01
 -1       129-5.57657E+02-2.13753E+02 8.74512E+00
 -1       130-7.61790E+02 8.60026E+01-7.01049E+01
 -1       131-6.69224E+02 1.11397E+02-4.77392E+00
 -1       132-6.02479E+02 1.12630E+02 4.76289E+01
 -1       133-4.90333E+02 1.00288E+01 1.11139E+02
 -1       134 1.32512E+01-1.74329E+02 1.47415E+02
 -1       135-2.77477E+02-3.23603E+02 2.73470E+02
 -1       136-1.00753E+02-3.45859E+02 2.55701E+02
 -1       137-3.69907E+01-1.72000E+02 1.32149E+02
 -1       138-3.78859E+01-1.75155E+02 1.05640E+02
 -1       139-6.53964E+02-1.81495E+01 6.55368E+00
 -1       140-4.25541E+02-1.72171E+02 1.96136E+02
 -1       141-1.36156E+02-2.23099E+02 8.32978E+01
 -1       142-2.83493E+02-2.81621E+02 1.51782E+02
 -1       143-3.60442E+02-2.54487E+02 1.95555E+02
 -1       144-4.83643E+02-1.83160E+02 1.03200E+02
 -1       145-1.54977E+01-2.03564E+02 1.36269E+02
 -1       146 8.77462E+01-3.43831E+02 2.45937E+02
 -1       147 2.58071E+02-3.52920E+02 2.56533E+02
 -1       148 4.96744E+02 1.49509E+01 1.24905E+02
 -1       149 5.60269E+02 6.53769E+01-1.75387E+01
 -1       150 5.83049E+02 8.95355E+01 4.74930E+01
 -1       151 6.78177E+02 7.79742E+01-3.52018E+01
 -1       152 5.14371E+01-1.42929E+02 3.30984E+01
 -1       153 2.04533E+02-2.53351E+02 3.43505E+01
 -1       154 4.27225E+02-2.22208E+02 7.97092E+00
 -1       155 4.05823E+01-1.47444E+02 5.42337E+01
 -1       156 1.95919E+01-1.53997E+02 8.16692E+01
 -1       157 4.31219E+02-1.63686E+02 1.72076E+02
 -1       158 5.70592E+02-8.21477E+01-1.08615E+00
 -1       159 9.10743E+00-1.76392E+02 1.12982E+02
 -1       160 1.37871E+02-2.79614E+02 1.41656E+02
 -1       161 2.98637E+02-2.73562E+02 1.62589E+02
 -1       162 3.39361E+02-2.36033E+02 9.36271E+01
 -1       163 2.89563E+02 2.54781E+02-3.65883E+01
 -1       164 3.62050E+02 3.05539E+02-4.24322E+01
 -1       165 4.00253E+02 2.81042E+02-3.44054E+01
 -1       166 5.58497E+02 2.53906E+02-1.45443E+02
 -1       167 3.64324E+02 2.60896E+02-1.63449E+02
 -1       168 1.71087E+02 2.61448E+02-1.54766E+02
 -1       169-2.71130E+02 2.64071E+02-6.96936E+01
 -1       170-5.80385E+02 3.00439E+02-1.23133E+02
 -1       171-4.39239E+02 3.21985E+02-6.72478E+01
 -1       172-5.01290E+02 3.25123E+02-8.64300E+01
 -1       173-3.33206E+02 2.98289E+02-1.20114E+02
 -1       174-1.55342E+02 2.79303E+02-1.19537E+02
 -1       175 3.93770E+01 2.61301E+02-8.76356E+01
 -1       176 4.38489E+02 2.56970E+02-1.11086E+02
 -1       177 1.69856E+02 3.02783E+02-1.09575E+02
 -1       178-9.58362E+01 2.96211E+02-1.28692E+02
 -1       179-7.91262E-01 2.96193E+02-1.35822E+02
 -1       180-5.79561E+01 3.10941E+02-1.24452E+02
 -1       181 0.00000E+00 0.00000E+00 0.00000E+00
 -1       182 0.00000E+00 0.00000E+00 0.00000E+00
 -1       183 0.00000E+00 0.00000E+00 0.00000E+00
 -1       184 0.00000E+00 0.00000E+00 0.00000E+00
 -1       185 0.00000E+00 0.00000E+00 0.00000E+00
 -1       186 0.00000E+00 0.00000E+00 0.00000E+00
 -1       187 0.00000E+00 0.00000E+00 0.00000E+00
 -1       188 0.00000E+00 0.00000E+00 0.00000E+00
 -1       189 0.00000E+00 0.00000E+00 0.00000E+00
 -1       190 0.00000E+00 0.00000E+00 0.00000E+00
 -1       191 0.00000E+00 0.00000E+00 0.00000E+00
 -1       192 0.00000E+00 0.00000E+00 0.00000E+00
 -1       193 0.00000E+00 0.00000E+00 0.00000E+00
 -1       194 0.00000E+00 0.00000E+00 0.00000E+00
 -1       195 0.00000E+00 0.00000E+00 0.00000E+00
 -1       196 0.00000E+00 0.00000E+00 0.00000E+00
 -1       197 0.00000E+00 0.00000E+00 0.00000E+00
 -1       198 0.00000E+00 0.00000E+00 0.00000E+00
 -1       199 4.33151E+02-1.24922E+02-1.82616E+01
 -1       200 3.11735E+02 6.27178E+01-7.19639E+01
 -1       201 2.46353E+02-1.79418E+02 1.89334E+01
 -1       202 3.88854E+02 9.35511E+01-5.80105E+01
 -1       203 1.87679E+02 9.57182E+01-5.95352E+01
 -1       204 4.31090E+01-1.19427E+01 1.38183E+01
 -1       205 2.63691E+02-2.54552E+01 7.37355E+01
 -1       206-5.01399E+02 1.08774E+02-4.31816E+01
 -1       207-3.47914E+02 7.76753E+01-6.17751E+01
 -1       208-2.63727E+02 1.05495E+02-4.18966E+01
 -1       209 5.24154E+01-3.02109E+02 8.96942E+01
 -1       210-7.38960E+01-9.70382E+01 3.71814E+01
 -1       211-1.55357E+02-2.95353E+02 1.38800E+02
 -1       212-9.63992E+01-3.04169E+02 1.06695E+02
 -1       213-1.00913E+02-3.28034E+02 1.45212E+02
 -1       214-2.92217E+02-2.67994E+02 1.19778E+02
 -1       215 5.25051E+01-3.33671E+02 1.12282E+02
 -1       216 1.27655E+02-2.95530E+02 1.04320E+02
 -1       217 1.05204E+02-1.96942E+02 5.75385E+01
 -1       218 2.30669E+02-2.62563E+02 6.27689E+01
 -1       219 1.98868E+02-3.15960E+02 1.17984E+02
 -1       220-6.64900E+01-2.07351E+02 6.29283E+01
 -1       221-1.78262E+02-3.25359E+02 1.22868E+02
 -1       222-3.92721E+02-2.17320E+02 5.71106E+01
 -1       223-1.29848E+02-2.43053E+02 5.37662E+01
 -1       224-3.49389E+02-3.21488E+02 4.83953E+01
 -1       225-2.82809E+02-2.69502E+02 4.61160E+01
 -1       226-4.97340E+02-1.34170E+02-8.11576E+00
 -1       227 8.91567E+01-3.51871E+02 1.77429E+02
 -1       228-1.06331E+02-3.46714E+02 1.06746E+02
 -1       229-9.07155E+01-3.35701E+02 9.36678E+01
 -1       230 5.03644E+01-2.95121E+02 1.08422E+02
 -1       231 5.02281E+01-3.80686E+02 1.37276E+02
 -1       232-4.05769E+02-1.01266E+02 5.78154E+01
 -1       233 1.57036E+02-3.84533E+02 1.97536E+02
 -1       234 2.49206E+02-2.05970E+02 1.37389E+02
 -1       235 1.65337E+02-3.38987E+02 1.54273E+02
 -1       236 2.82299E+02-2.03595E+02 1.01821E+02
 -1       237-8.89559E+01 9.43798E+01-4.33840E+01
 -1       238-1.38523E+02-1.98279E+02 4.61286E+01
 -1       239 3.50801E+01-1.96178E+02 9.56893E+01
 -1       240 5.73691E+01-1.82270E+02 7.47748E+01
 -1       241-2.88483E+02 5.39745E+01 2.12128E+01
 -1       242-4.29789E+02 1.06284E+02-5.74556E+00
 -1       243-2.10820E+02-1.26776E+02 6.73954E+01
 -1       244 1.08577E+02 5.24170E+01-5.84179E+01
 -1       245-4.30767E+01 8.49563E+01-4.65022E+01
 -1       246 4.69741E+01-1.75769E+02 4.55138E+01
 -1       247 8.03635E+01-3.23013E+02 8.80096E+01
 -1       248 2.04105E+01-2.02408E+02 6.72467E+01
 -1       249 6.03885E+00-2.17258E+02 7.63503E+01
 -1       250 6.37503E+01-1.43681E+02 3.29419E+01
 -1       251 1.22539E+02 9.39150E+01-5.00768E+01
 -1       252 1.18466E+02-3.16840E+01 1.89583E+01
 -1       253 1.10311E+02-3.06448E+02 1.31401E+02
 -1       254 6.47281E+00-3.26432E+02 1.13680E+02
 -1       255-1.30203E+02-3.82106E+02 2.11975E+02
 -1       256 3.08526E+02-2.84873E+02 4.07047E+01
 -1       257-1.15719E+01-2.08110E+02 7.13059E+01
 -1       258 8.06785E+00-2.04851E+02 7.74878E+01
 -1       259 5.34909E+01-1.72147E+02 5.17405E+01
 -1       260-4.56948E+01-2.22565E+02 1.24516E+02
 -1       261 5.41073E+00-3.70088E+02 1.28316E+02
 -1       262 1.76036E+02-2.78440E+02 4.98779E+01
 -1       263 2.99424E+02-1.15125E+02 2.53601E+01
 -1       264 3.66521E+02 7.61645E+01 1.87962E+01
 -1       265-8.60770E+01-2.65846E+02 7.77044E+01
 -1       266-1.84720E+01-1.87886E+02 5.63360E+01
 -1       267-1.10992E+02-2.56544E+02 1.05505E+02
 -1       268-5.98083E+01-2.06399E+02 1.03602E+02
 -1       269-1.11505E+02-1.95788E+02 9.46769E+01
 -1       270 1.32344E+01-1.95906E+02 6.30413E+01
 -1       271 1.38767E+02-3.30050E+02 8.36330E+01
 -1       272 1.52690E+01-1.63267E+02 8.54846E+01
 -1       273 6.17471E+01-2.91192E+02 8.70302E+01
 -3
    1PSTEP                        17           1           1          
    1PGM                1.000000E+00                                  
    1PGK                8.844680E+11                                  
    1PHID                         -1                                  
    1PSUBC                         0                                  
    1PMODE                         6                                  
  100CL  106 1.49679E+05         273                     2    6MODAL      1
 -4  STRESS      6    1
 -5  SXX         1    4    1    1
 -5  SYY         1    4    2    2
 -5  SZZ         1    4    3    3
 -5  SXY         1    4    1    2
 -5  SYZ         1    4    2    3
 -5  SZX         1    4    3    1
 -1         1-2.69579E+06 1.86867E+06 1.18670E+05 7.63152E+04-4.15678E+05 9.61192E+05
 -1         2 1.95013E+06 1.30443E+06 1.02775E+06 1.49185E+06-1.08359E+04 9.03680E+05
 -1         3-7.87859E+05-2.48814E+05-4.66979E+05 5.36487E+05 1.93850E+05 5.36403E+05
 -1         4 2.31932E+06 1.17478E+06 4.32048E+05-1.04181E+06-1.43638E+05-1.65763E+06
 -1         5 1.16910E+05 5.00614E+04 5.00645E+04-7.98738E+06 3.77021E+00-4.93649E+05
 -1         6 3.46695E+05 1.48563E+05 1.48566E+05-9.89941E+06-3.18153E-02 8.70476E+06
 -1         7 2.20401E+06 3.45463E+06 1.16050E+06-6.98431E+06-1.01114E+06 6.06399E+06
 -1         8 4.50216E+06 1.50912E+06 1.80341E+06-6.74085E+06-3.54964E+05-2.64695E+05
 -1         9 2.72926E+06 1.16971E+06 1.16971E+06-1.21980E+07-2.12733E+00 1.91852E+06
 -1        10-3.81034E+06-2.42815E+04-5.86683E+05-1.40735E+07-2.90256E+05 4.15611E+06
 -1        11-1.20431E+07 1.06291E+06 1.02742E+06-2.72322E+06 5.62781E+05 1.83241E+06
 -1        12-1.09197E+07-9.88727E+05 9.58920E+05 7.69826E+05-1.04258E+05-1.12105E+06
 -1        13 1.59116E+06 1.18577E+05 1.71385E+06 1.94797E+06-1.11442E+06-1.36054E+06
 -1        14 3.51288E+06-2.06081E+06 6.84812E+05 1.50655E+06-3.69536E+05-5.54885E+05
 -1        15 2.75944E+07 1.13365E+06 1.95947E+06-2.13006E+06 3.45416E+05-4.72499E+05
 -1        16 1.81316E+07-2.04592E+06-1.63662E+05 3.03270E+06-4.40760E+05 2.79745E+06
 -1        17 7.57113E+06 3.24479E+06 3.24477E+06-1.18306E+07 3.60077E+00 2.95574E+06
 -1        18-5.73499E+06-1.90851E+06-2.20842E+06-1.38660E+07-1.67367E+05 1.97911E+06
 -1        19-2.45309E+07 1.73654E+06 1.09738E+06-2.14885E+06 1.41705E+04-5.85134E+05
 -1        20-2.07330E+07-1.66485E+05-1.96710E+03 2.09527E+06 1.95276E+05 7.75990E+05
 -1        21-1.02589E+06 2.55719E+06 9.45608E+05 1.80302E+06 4.32735E+05-6.36964E+05
 -1        22-1.67286E+05 1.31189E+06-9.14101E+04 2.28242E+06 2.16099E+06-2.02215E+05
 -1        23 1.36233E+07 1.14256E+06 4.19451E+05-3.64810E+06 4.76597E+05 1.25001E+06
 -1        24 1.10719E+07 1.09695E+06-6.73728E+05 1.68519E+06-1.84996E+05-3.45957E+05
 -1        25-1.30808E+06 1.11796E+06 4.49013E+06 7.93788E+05 2.24737E+05-4.20032E+05
 -1        26-2.74578E+06-1.65585E+06 1.28873E+06-4.81869E+05-4.87004E+04-1.79562E+05
 -1        27-6.21236E+06-6.85670E+05-1.48703E+06-7.46540E+06-1.74963E+05 3.49546E+06
 -1        28 4.89451E+06 2.59009E+06 2.59301E+06-7.04138E+06 2.66346E+05 7.33849E+06
 -1        29 4.88528E+06-1.39261E+06-2.08064E+06 2.68324E+05-9.33135E+04-1.52282E+06
 -1        30-6.22838E+06-3.81774E+05-9.15959E+06 3.16692E+06-2.53989E+06 1.81821E+06
 -1        31-3.57320E+06-1.13320E+06-1.76163E+06-8.15254E+06 4.67801E+04 5.66686E+06
 -1        32 2.91752E+06 1.21928E+06 1.28366E+06-6.33787E+06-2.40294E+05 3.22114E+06
 -1        33 1.61527E+07-6.11587E+05 1.05633E+06-9.36104E+06 4.89966E+05 4.84939E+05
 -1        34 5.16411E+06-9.33287E+05 8.87718E+05-3.59134E+06 6.29138E+05-4.17932E+05
 -1        35 1.05970E+07-1.01709E+06-1.86994E+05 1.07544E+06 2.09058E+05 3.06056E+05
 -1        36 1.76001E+06-1.64409E+06 2.51756E+05-1.09835E+07 1.39835E+05 1.52720E+06
 -1        37-1.31813E+07 2.53873E+05 1.98145E+06-4.13774E+06 5.98662E+05 4.61213E+05
 -1        38-2.73061E+06 2.41021E+06 6.43662E+05 1.16737E+06-3.23307E+04-4.82083E+05
 -1        39-2.53643E+07-5.76111E+05-8.19175E+05 1.61603E+05-2.45861E+04 4.04101E+05
 -1        40-1.50271E+07 2.31363E+05 2.63947E+06 1.87039E+06 5.88404E+05-1.20450E+06
 -1        41-1.93897E+07-9.18635E+05 9.14064E+05-2.18440E+06 7.71022E+05 3.40243E+06
 -1        42 1.84132E+07 1.15628E+06-1.25154E+06-2.70822E+06 3.87024E+05 3.33022E+06
 -1        43 1.47547E+07-3.73416E+05-4.91524E+06 1.78976E+06 7.14393E+05-1.54576E+06
 -1        44 1.93318E+07 1.10143E+06-3.35633E+04-1.75417E+06 1.08413E+06 1.70966E+06
 -1        45-1.16962E+06 6.97647E+04-1.26428E+06 1.61919E+06-1.68665E+06 1.35819E+05
 -1        46-3.89132E+04-6.81033E+05-4.13332E+06 4.98043E+05-1.59840E+06 2.76427E+05
 -1        47-1.10884E+06 1.45067E+06-2.27495E+05 5.70535E+05 1.39991E+06-8.12209E+05
 -1        48 2.40594E+06 7.50743E+05 1.46241E+06-1.13748E+07 4.83483E+04 4.59042E+06
 -1        49 5.51942E+06 1.85771E+06 2.60494E+06-1.07131E+07-1.17196E+04 3.44682E+06
 -1        50-4.78360E+06-1.78492E+06-2.22202E+06-1.10435E+07 1.61818E+05 4.31134E+06
 -1        51-4.21965E+06-6.81300E+05 1.41898E+06 1.86293E+06 5.86024E+05-8.33468E+05
 -1        52 4.41901E+06-7.91379E+05-1.08511E+05 1.65118E+06 1.98017E+05 5.73823E+03
 -1        53 2.46297E+06 7.73398E+05-1.11681E+06-3.85441E+05 8.13466E+04 1.42598E+05
 -1        54 5.02064E+05-1.39527E+06-8.94706E+05-7.29730E+06 1.07597E+05 2.23434E+06
 -1        55 5.32138E+06 2.28062E+06 2.28061E+06-9.91339E+06-1.51444E+00 5.94085E+05
 -1        56-2.20285E+06-9.44058E+05-9.44061E+05-1.35899E+07-2.74021E+00 3.44581E+06
 -1        57-8.83872E+06-3.78804E+06-3.78804E+06-1.10429E+07-3.18153E-02 7.28564E+06
 -1        58-4.88903E+06 1.70132E+06 1.16655E+06-6.67867E+06 5.81044E+03 5.09927E+06
 -1        59-1.37013E+07-1.15813E+06-5.55536E+05-4.89173E+05 4.22235E+05 1.70280E+05
 -1        60-3.16625E+06 2.05835E+06 1.55546E+06 1.62206E+06-4.50349E+05-2.83893E+05
 -1        61 5.23171E+05 6.55018E+05 2.21943E+06 7.09723E+05-1.07008E+06-2.29938E+06
 -1        62 2.89876E+06 1.11730E+06 2.10733E+06 1.80985E+06-7.84431E+05-5.86843E+05
 -1        63 3.39310E+06-1.62509E+06 3.02741E+05 1.72510E+06 1.91313E+05 2.92513E+05
 -1        64 1.42409E+07-1.18816E+05 4.50969E+05-4.01668E+06-2.35941E+05-4.08015E+05
 -1        65 2.71516E+07 1.66630E+05 2.05188E+06 5.09649E+05-1.20503E+04 4.04840E+05
 -1        66 7.43860E+06-9.57526E+05 1.17601E+05 1.22877E+06-1.17598E+05 1.16055E+06
 -1        67 1.26998E+07 5.44279E+06 5.44278E+06-1.06102E+07 4.27906E+00 4.82132E+06
 -1        68 1.55638E+06 6.67032E+05 6.67020E+05-1.28298E+07 2.22518E+00 2.24899E+06
 -1        69-5.62513E+06-2.41081E+06-2.41081E+06-1.03300E+07 3.77021E+00 5.54555E+05
 -1        70-1.13372E+07 2.93758E+06 2.37479E+06-4.74965E+06-6.88555E+05-4.87704E+05
 -1        71-2.90972E+07-2.12317E+06-3.93548E+05-1.05383E+05-7.74278E+04 2.90944E+05
 -1        72-1.11159E+07 9.45460E+05-2.73085E+05 4.89834E+05-3.24728E+05 1.12532E+06
 -1        73-1.77184E+06 5.85753E+05 7.87938E+04 1.38954E+06 2.56839E+05 9.87102E+04
 -1        74-8.74571E+05 2.64402E+06 6.95001E+04 2.57653E+06 1.02038E+06-5.17295E+05
 -1        75 2.11180E+05 1.99064E+06-2.59514E+05 1.38789E+06 1.26484E+06 5.27977E+05
 -1        76 6.41989E+06 2.05304E+06-3.70234E+05-5.74084E+06-6.06562E+05 3.26546E+06
 -1        77 1.46275E+07 1.20339E+06 2.14826E+05-6.54428E+05 6.78044E+05-3.49374E+04
 -1        78 4.92559E+06 2.20847E+05 2.97515E+04 1.01962E+06-6.19151E+05-1.47403E+05
 -1        79-2.05238E+06 1.45128E+06 2.31565E+06-1.49775E+05 3.66389E+04 1.89429E+05
 -1        80-1.31949E+05 5.49912E+05 4.63867E+06 3.06222E+05 1.85383E+05-2.22871E+05
 -1        81-9.05876E+05-3.37922E+05 1.33801E+06 4.20003E+05-1.36159E+05 1.32862E+05
 -1        82-1.16524E+06-4.99430E+05-4.99427E+05-7.70939E+06 3.77021E+00 1.37741E+06
 -1        83 1.50624E+06 6.45500E+05 6.45505E+05-7.98317E+06-7.90494E+00 5.39752E+06
 -1        84 6.22521E+06 2.66793E+06 2.66793E+06-8.56833E+06-3.18153E-02 7.89326E+06
 -1        85 1.74423E+06-8.12416E+05-2.08897E+06-1.98877E+04 1.69441E+05-3.76725E+05
 -1        86 6.95996E+05-4.80829E+05-1.70995E+06 1.56563E+06-2.43798E+06-3.40215E+06
 -1        87-6.84173E+05 2.04664E+05-7.26310E+06-1.28074E+05-5.65572E+05 1.85266E+06
 -1        88 7.36109E+05 2.23403E+06 8.91053E+05-7.32525E+06-1.53579E+05 6.68965E+06
 -1        89-1.52337E+06-6.52847E+05-6.52849E+05-7.70322E+06-2.97965E+00 4.15220E+06
 -1        90 3.85663E+06 1.32848E+06 1.55556E+06-5.96450E+06-4.92573E+05 1.47648E+06
 -1        91 1.21195E+07-7.32075E+04 6.73993E+05-7.91697E+06 4.57916E+05-1.61674E+05
 -1        92 2.34341E+07 1.47407E+06 1.67586E+06-6.07733E+06 4.11236E+05 1.11937E+03
 -1        93 1.03381E+07-5.89944E+05 6.88595E+05-1.00994E+07 3.88514E+05 8.58123E+05
 -1        94 5.21509E+06-3.45413E+05 4.38658E+05-1.19093E+07-7.87356E+04 2.39053E+06
 -1        95-9.35533E+06 1.28090E+05-5.46362E+05-9.15473E+06 3.85830E+04 2.53276E+06
 -1        96-1.15417E+06 1.35096E+05 1.26449E+06-4.53264E+06 5.71984E+05-2.85874E+05
 -1        97-1.94685E+06-1.43487E+06 5.89605E+05-7.94450E+05 3.09313E+05-6.11067E+05
 -1        98-2.79928E+06-1.63547E+06 9.35465E+05 1.34050E+06-3.86466E+05-9.87060E+05
 -1        99 7.09706E+06-2.38016E+06-2.30407E+05 2.45208E+06-8.35536E+05 4.69882E+05
 -1       100 6.94511E+06-3.24584E+06 8.64688E+05 1.85256E+06-2.85867E+05-4.87397E+05
 -1       101 7.17810E+06-1.89317E+05 1.16108E+05 2.41062E+06-1.30581E+05-4.37805E+04
 -1       102 1.57927E+07-2.14937E+05 2.39003E+05 2.36192E+06-2.35053E+05 7.90464E+05
 -1       103 1.66185E+07-1.56196E+05-4.47918E+04-1.18522E+05 1.81051E+05 4.80858E+05
 -1       104 6.97424E+05 1.03798E+06 1.21154E+06-1.08765E+07-9.20332E+04 1.31860E+06
 -1       105 2.72873E+06-3.42449E+06 3.26174E+05 8.13383E+05 2.22706E+05-7.37053E+05
 -1       106 1.14937E+07-1.19545E+06-4.77454E+04-4.37899E+06-9.48843E+04 9.92257E+05
 -1       107 7.55506E+06-2.12699E+06-5.26817E+04-1.01236E+06 3.11112E+05 1.45137E+05
 -1       108 8.42750E+06-5.03528E+05 1.38640E+06-7.45020E+06 5.62281E+05 3.38929E+05
 -1       109 3.65222E+06-3.35719E+05 4.86841E+05-1.04054E+07-9.10579E+05 3.14573E+06
 -1       110 4.19280E+06-1.16931E+06 1.31208E+06-1.21212E+07-6.57610E+05 2.55903E+06
 -1       111-7.53951E+05-7.55474E+04 6.99187E+05-1.30323E+07-1.86994E+05 2.18028E+06
 -1       112-1.50476E+07 1.10730E+06 6.42621E+04-7.72087E+06-4.49581E+05 1.00821E+06
 -1       113-1.70289E+07-9.18591E+05 7.56668E+05 2.55572E+04 2.91123E+05 6.89030E+05
 -1       114-1.96207E+07 2.21784E+05 1.42210E+06-4.29054E+06 1.03747E+06 5.78497E+05
 -1       115-8.27397E+06 1.39851E+06-1.52184E+05 1.76846E+06 1.34750E+06 3.35724E+05
 -1       116 3.56230E+06 1.37104E+06 2.99348E+05 1.81035E+06-4.50033E+05-3.36686E+05
 -1       117 3.23283E+05 3.75184E+06 1.68381E+06 1.72945E+06 9.56449E+04-5.10593E+05
 -1       118-1.43421E+06 1.41280E+06-1.43083E+05 2.14946E+06 8.77583E+05-4.61323E+05
 -1       119 3.78605E+06 2.20992E+06 8.40004E+04 1.77268E+06 1.49425E+05-3.30155E+05
 -1       120 2.77457E+06 1.07640E+06-1.66669E+05-1.47752E+06 4.72412E+05-8.21973E+05
 -1       121 6.85582E+06-1.15163E+06-1.37852E+05-8.14228E+06 2.67344E+05 6.65478E+05
 -1       122-9.57491E+06 1.28477E+06 1.36600E+06-9.55370E+06 5.48568E+05 1.54330E+06
 -1       123-6.90876E+06-1.04774E+06-7.89120E+04 1.13260E+06 1.13318E+06 1.21296E+05
 -1       124-4.15981E+06-2.60113E+05-1.09052E+06-4.80665E+06 3.70049E+05-1.47272E+05
 -1       125-6.82893E+06 1.40875E+06 1.19497E+06-7.54256E+06 2.73151E+05 5.83295E+05
 -1       126-8.27479E+06 8.01776E+05 4.96031E+05-9.54546E+05-1.28191E+05 1.96772E+05
 -1       127-1.46502E+07 1.85050E+06 1.13002E+05-3.89148E+06-6.23384E+05 4.98639E+05
 -1       128-2.71744E+07-1.39647E+06-5.91672E+05-1.23409E+06 8.63790E+04 6.30267E+04
 -1       129-2.48931E+07-3.58287E+05-1.26904E+05 1.67320E+06 4.59592E+05 6.14297E+05
 -1       130-1.02136E+07 5.21882E+05 1.95779E+06 1.06556E+06 2.31118E+05 2.80217E+05
 -1       131-7.98085E+06-7.43102E+04 3.98873E+06 1.14996E+06 8.99409E+05-9.08675E+05
 -1       132-9.07490E+06-7.74001E+05 1.80297E+06 6.11445E+05 4.93078E+05-5.64534E+05
 -1       133-6.97285E+06-1.63116E+05 1.94484E+06 1.26043E+05-5.04846E+05-1.16048E+06
 -1       134-2.41115E+06 3.07938E+06 2.78331E+06-4.39217E+06 2.33584E+05 5.19066E+06
 -1       135-1.86244E+07-2.68757E+06-5.94825E+05-2.81018E+05 3.28251E+05 1.11582E+06
 -1       136-1.67937E+07-6.64713E+05-1.95638E+05-1.62930E+06 6.34422E+05 3.94555E+06
 -1       137-7.84068E+06 2.28151E+06 1.14422E+06-4.70706E+06 7.91769E+05 5.76328E+06
 -1       138-1.07827E+07 8.35192E+05 1.25296E+06-4.68760E+06 9.62514E+05 4.10112E+06
 -1       139-1.41240E+07 4.19299E+05 9.24690E+05 1.14108E+06 5.50388E+05-7.29144E+05
 -1       140-1.33760E+07-3.03217E+05 2.29057E+06 1.01043E+06 1.94553E+05-1.43229E+06
 -1       141-1.58162E+07-2.02663E+05-2.00467E+05-3.36570E+06-1.66538E+05 2.64250E+06
 -1       142-2.25620E+07-1.44975E+06 4.00869E+05-1.01430E+06 4.55991E+04 1.56101E+06
 -1       143-2.01994E+07-1.18802E+06 1.53849E+06-2.82879E+05 7.78599E+05 6.17842E+05
 -1       144-2.10656E+07 8.97690E+05 1.80019E+06 1.08949E+06-1.27472E+05-7.50205E+05
 -1       145 6.71817E+06 1.51651E+06-1.81572E+06-3.68952E+06-4.05276E+05 5.57022E+06
 -1       146 1.67849E+07 6.14016E+05-1.56705E+06-2.88994E+06 1.94181E+05 2.88057E+06
 -1       147 1.76276E+07 8.33767E+05-1.50739E+06-6.94281E+05 5.18124E+05 1.14866E+06
 -1       148 7.20608E+06-5.30218E+05-1.98646E+06 7.85443E+05-3.56716E+05-9.28596E+05
 -1       149 1.77405E+04-1.53964E+06-6.51566E+06 1.58191E+06-1.00389E+06-1.35508E+06
 -1       150 8.78369E+06-1.35516E+06-4.79694E+06 9.35164E+05 9.48267E+03-1.35985E+06
 -1       151 1.33538E+06-2.29039E+06-5.51986E+06 2.31592E+06-8.67555E+05 4.39176E+06
 -1       152 1.49571E+07 1.12027E+06 1.69037E+06-3.34789E+06-4.04651E+05 7.22830E+05
 -1       153 2.34547E+07 1.47448E+06 1.65487E+06-2.05229E+06 4.49444E+05 1.69673E+06
 -1       154 2.54243E+07 1.64835E+06 2.28139E+06 1.40640E+05 1.95522E+05 2.24104E+06
 -1       155 8.20262E+06-5.53632E+05-4.58038E+05-4.64611E+06 2.61405E+05 3.13848E+06
 -1       156 5.73673E+06-2.38676E+06-2.40615E+06-4.69757E+06 4.93229E+05 3.47365E+06
 -1       157 1.47772E+07 6.46114E+05-2.63807E+06 1.74060E+06 5.66386E+05-8.14145E+05
 -1       158 1.56262E+07-1.24685E+06-8.46649E+05 2.03639E+06 1.23057E+05 1.08535E+06
 -1       159 6.41766E+06-1.86807E+05-1.41021E+06-5.40260E+06 3.82116E+05 4.89319E+06
 -1       160 1.89497E+07 1.56179E+06 1.84592E+05-2.28664E+06 5.42741E+05 1.69548E+06
 -1       161 1.97579E+07 1.19345E+06-1.96139E+06 1.40609E+05 8.08942E+05 4.78831E+05
 -1       162 2.20346E+07 1.59829E+06-6.40735E+05-1.02818E+05 1.26699E+06-7.96699E+05
 -1       163 1.94494E+06 4.74262E+05-3.67641E+05 6.90923E+05 3.87616E+05-1.08297E+06
 -1       164 1.42830E+06-8.17805E+05-3.78810E+05 1.00654E+06-9.48832E+05-4.37409E+05
 -1       165-2.70475E+06 4.80735E+05-3.72590E+06 2.27297E+06-3.17789E+06-1.60186E+05
 -1       166-1.62790E+06-3.60181E+05-4.27470E+06 2.29042E+06-1.52608E+06 1.36945E+06
 -1       167 1.09147E+06 7.77345E+05-9.81546E+05 1.26705E+06-1.14276E+06-6.08229E+05
 -1       168 1.11477E+06-2.30111E+05-1.42774E+06 1.80643E+05-9.44850E+05 4.07844E+04
 -1       169 1.00652E+06-2.90688E+06 5.87123E+05 4.87602E+05 5.59790E+04-5.09033E+04
 -1       170-6.61324E+05 1.71391E+06 2.24453E+06 1.03823E+06 1.24604E+06 1.66759E+05
 -1       171-2.03620E+05 4.17872E+05 6.40357E+05 2.65312E+05 1.33904E+06 2.13131E+05
 -1       172-4.12222E+05 1.66246E+06 3.04397E+06 8.70776E+05 9.59826E+05-3.93443E+05
 -1       173-1.15215E+06 1.27341E+06 6.42606E+05 1.02793E+06 1.88760E+06-3.62965E+05
 -1       174 1.15856E+05 1.57810E+06 1.71993E+05 2.22914E+06 2.46132E+05-6.04148E+05
 -1       175-1.43579E+05 1.83372E+06 5.88677E+05 1.68283E+06-1.04847E+05-7.93688E+05
 -1       176 9.34841E+05 1.85171E+06-7.34764E+06 3.17446E+06-2.55622E+06 8.26302E+05
 -1       177-9.75416E+05-3.53729E+05-2.46623E+06 6.69912E+05-2.20488E+06 7.08423E+05
 -1       178 1.69487E+06 1.56152E+06-1.12949E+04 6.95884E+05 9.15149E+05-3.33059E+05
 -1       179-2.07961E+06-7.49397E+05-2.60390E+06 3.06756E+05-4.40174E+05-6.06589E+05
 -1       180-1.20733E+06 3.38996E+05-1.07010E+06 1.52258E+06-4.27925E+05-5.02807E+05
 -1       181 4.19392E+06 1.79741E+06 1.79740E+06-9.75212E+06 4.28857E+00 4.62245E+06
 -1       182 4.36462E+06 1.87058E+06 1.87057E+06-8.96226E+06-3.65341E+00 3.84519E+06
 -1       183-4.90460E+05-2.25038E+05-1.68328E+05-9.67913E+06 8.05860E+04 5.10077E+06
 -1       184 6.62511E+06 2.83936E+06 2.83936E+06-9.26508E+06-2.41738E+00 1.55469E+06
 -1       185 4.03301E+06 1.72846E+06 1.72845E+06-1.15497E+07-2.12733E+00 2.87913E+06
 -1       186 1.62727E+06 1.17625E+06 1.01381E+06-1.22589E+07-2.26707E+05 3.99673E+06
 -1       187-6.04780E+05 1.05536E+04 5.47410E+04-1.01347E+07 1.56119E+05 5.99703E+06
 -1       188-8.48632E+06-2.32656E+06-3.26893E+06-1.07257E+07-4.93902E+05 2.07539E+06
 -1       189-4.77598E+06-1.60980E+06-1.66199E+06-9.80543E+06 2.67566E+05 4.78104E+06
 -1       190-1.67282E+06-7.16954E+05-7.16946E+05-9.27767E+06-4.56751E+00 5.31308E+06
 -1       191-6.48628E+06-2.82639E+06-2.83225E+06-1.19327E+07 2.70849E+05 2.82798E+06
 -1       192 3.77972E+06 1.61990E+06 1.61988E+06-1.16507E+07 3.26163E+00 3.31695E+06
 -1       193 5.75953E+06 2.62638E+06 2.74536E+06-8.78584E+06-1.77195E+05 3.35110E+06
 -1       194-2.02747E+06-2.89926E+05-6.76285E+05-1.19114E+07 1.90661E+05 4.56991E+06
 -1       195-2.23503E+06-9.57863E+05-9.57872E+05-1.26499E+07 3.60408E-01 2.61020E+06
 -1       196-3.15045E+06-1.02429E+06-7.67883E+05-1.15139E+07-2.10923E+05 4.13926E+06
 -1       197 4.47053E+06 1.06001E+06 1.66250E+06-1.09737E+07 7.27277E+04 3.92383E+06
 -1       198 5.46494E+05 2.34218E+05 2.34216E+05-1.15308E+07 3.14295E-01 3.78206E+06
 -1       199 1.21790E+07-5.17800E+05 6.58684E+05 2.65685E+06-7.49003E+03 1.73752E+06
 -1       200 4.62281E+06 2.79500E+05 1.63371E+06 1.77201E+06-5.53894E+05-1.43154E+05
 -1       201 7.52014E+06-6.67421E+05 7.32793E+05 1.08982E+06 6.92447E+05 3.85468E+05
 -1       202 9.36775E+05 5.46032E+04-3.62248E+06 3.38563E+06-1.11729E+06 1.41865E+06
 -1       203 2.58320E+06-1.39543E+06-1.85100E+06 1.43314E+06-6.44859E+05 5.41398E+05
 -1       204-4.17620E+05 1.64197E+06 4.79704E+05 1.51051E+06-6.98352E+05-4.01284E+05
 -1       205 3.52869E+06 1.80309E+06 6.50744E+05 1.20483E+06 7.81812E+04-9.02478E+05
 -1       206-3.44212E+06 8.33767E+04 2.49629E+06 1.30641E+06 3.00645E+05-6.79398E+05
 -1       207-2.65774E+06 4.09858E+05 3.96099E+05 2.01858E+06 1.35057E+06-4.08293E+05
 -1       208-3.15812E+06 5.61594E+04 6.93864E+05 1.01136E+06 1.04420E+06-1.02364E+06
 -1       209 5.79782E+05-1.96811E+06-1.48035E+06-2.68589E+06 3.59166E+05 7.41809E+05
 -1       210-2.28713E+05-7.99327E+05 3.62806E+05 1.51550E+06 2.37156E+05-1.38749E+06
 -1       211-7.83506E+06-1.35809E+06 3.20234E+05-7.64258E+05 5.00468E+05 1.04268E+06
 -1       212-2.46061E+06-1.12232E+06-3.31749E+05-2.25022E+06 5.64588E+05 4.90866E+05
 -1       213-8.35428E+06-4.74681E+05 4.95384E+05-5.02046E+06 3.29561E+05 2.64142E+06
 -1       214-1.32519E+07-1.63269E+06 1.51902E+06-2.90547E+05 1.14109E+06 9.09320E+05
 -1       215 1.51068E+06-9.33621E+04-7.29560E+05-4.29036E+06 3.90168E+05 9.42071E+05
 -1       216 8.81069E+06-9.80024E+05-1.25988E+06-4.48268E+06 6.62878E+05 1.60263E+06
 -1       217 2.18811E+06 1.80825E+05-1.03106E+06 1.10642E+06-1.07586E+05-3.54545E+05
 -1       218 1.10702E+07 2.88533E+05-6.60574E+05-3.75132E+04 8.21011E+05 7.78011E+05
 -1       219 1.13715E+07 7.47954E+05-8.75116E+05-9.97748E+05 9.96502E+05-2.51333E+05
 -1       220-7.99683E+05-2.61544E+04 6.84163E+04 8.13338E+05 6.40367E+05-4.03640E+05
 -1       221-1.22977E+07-9.64474E+05-1.25988E+06-3.87367E+06-1.38656E+05 1.59217E+06
 -1       222-1.41705E+07-2.44720E+05 3.63649E+05 9.61528E+05 3.01142E+05-3.16081E+05
 -1       223-1.28967E+07-3.90552E+04-1.21706E+05-6.42625E+06 3.37692E+05 1.59678E+06
 -1       224-1.94738E+07-6.10637E+05 4.86115E+05-2.34329E+06 4.53798E+05 4.73277E+05
 -1       225-7.89747E+06-1.06203E+06 1.15801E+06-2.48922E+05 1.93852E+05 3.38636E+04
 -1       226-1.15165E+07 6.99536E+04 5.58336E+05 2.03770E+06 1.89985E+05-1.82651E+05
 -1       227 1.02901E+07-7.20864E+05-7.87765E+05-6.62322E+06 3.36072E+05 2.44526E+06
 -1       228-6.04076E+06-1.86843E+05 6.79972E+05-5.78764E+06 2.31067E+05 1.34556E+06
 -1       229-4.14463E+06 7.86579E+05 2.62119E+05-2.67420E+06 3.72172E+05 3.00643E+05
 -1       230-6.53295E+05 5.71688E+05-1.24937E+06 2.60806E+05-9.46673E+04-4.51499E+04
 -1       231 8.68413E+05 8.48951E+05-7.56426E+05-5.41633E+06 5.25223E+05 7.33639E+05
 -1       232-9.70877E+06-5.24544E+05 2.46445E+06 1.60170E+06 7.69320E+05-9.63774E+05
 -1       233 6.63173E+06 5.13038E+05-1.76765E+06-1.23652E+06 1.78361E+05 9.46162E+05
 -1       234 7.46496E+06 1.75543E+06-1.25370E+06 1.72354E+06 4.29648E+05-6.12428E+05
 -1       235 9.81859E+06 6.03862E+05-1.22919E+06-2.05108E+06 4.48654E+04 1.22436E+06
 -1       236 8.64692E+06-3.59508E+05-3.05499E+06 1.60340E+06 2.53814E+05-5.07775E+05
 -1       237-2.02376E+06 2.63293E+05-2.09650E+05 2.12568E+06-1.68324E+05-6.78320E+05
 -1       238-3.56248E+06 2.87121E+05 1.10074E+05 1.57468E+06 3.00902E+05-3.59756E+05
 -1       239 9.58443E+06 9.89002E+05 8.30457E+05-6.93567E+06 3.24513E+05 4.54606E+06
 -1       240 1.00157E+07 2.40753E+05 4.31478E+05-6.39065E+06 4.78133E+05 2.95053E+06
 -1       241-4.92587E+06-7.68403E+05 1.31090E+06 1.83877E+06 9.22649E+04-8.76071E+05
 -1       242-7.01196E+06 6.34007E+05 1.00398E+06 1.21829E+06 1.20956E+06-7.84431E+05
 -1       243-4.27969E+06-1.83634E+05 5.93397E+05 1.73688E+06 1.88789E+05-1.12729E+06
 -1       244 3.58916E+06-1.27683E+06 6.75064E+05 1.44024E+06-2.50283E+05-2.04045E+05
 -1       245 9.11336E+05-1.81479E+05-4.74257E+05 1.13996E+06 3.20568E+05-9.87743E+05
 -1       246 1.11016E+07 3.17696E+05 1.91714E+06-9.70694E+06 1.63516E+05 1.86407E+06
 -1       247 7.00555E+06-1.64411E+06-1.93816E+05-8.69606E+06 3.78826E+05 1.67626E+06
 -1       248 3.41563E+06-8.72767E+05 3.19421E+05-9.36000E+06 2.30530E+05 3.11961E+06
 -1       249-4.23769E+05 3.01659E+05 4.41127E+05-1.03169E+07-5.41586E+04 3.50837E+06
 -1       250 1.19125E+07 1.02714E+06 1.58212E+06-7.57616E+06 2.16352E+05 1.62820E+06
 -1       251 1.86751E+06-1.32057E+05-1.25548E+06 1.84891E+06-6.79730E+05 8.15508E+04
 -1       252 6.29631E+05-4.08474E+04-2.00469E+06 1.40087E+06-7.03759E+05-2.20076E+05
 -1       253 8.74070E+06 2.67578E+04-1.12541E+05-5.80145E+06 2.43272E+05 2.47709E+06
 -1       254 1.18017E+06-2.22115E+05 1.40215E+05-8.48742E+06 4.59218E+05 2.01104E+06
 -1       255-6.35033E+06-1.09617E+06 7.31034E+05-3.17875E+06 3.35104E+05 1.49879E+06
 -1       256 1.46998E+07 8.34236E+05 2.24543E+05-4.72060E+04 3.82261E+05 1.70631E+06
 -1       257-2.24249E+06-6.36490E+05-1.02666E+06-9.30865E+06-2.13216E+05 3.60858E+06
 -1       258 1.88531E+06-8.33370E+05 3.90944E+05-9.93589E+06-1.19723E+05 3.62628E+06
 -1       259 1.08505E+07 5.91603E+05 1.13287E+06-6.20280E+06 4.71845E+05 2.67126E+06
 -1       260-8.58448E+06 1.01355E+06 4.53962E+05-8.76627E+06 3.52209E+05 4.13742E+06
 -1       261 2.66143E+06-2.16797E+05 4.34997E+05-5.14947E+06 6.43745E+05 9.71124E+05
 -1       262 1.65771E+07 6.03457E+05 8.35106E+05-5.45738E+06 3.07483E+05 2.29092E+06
 -1       263 9.26736E+06-4.68874E+05-2.57964E+06 2.05268E+06 1.19519E+05-9.76719E+05
 -1       264 4.92431E+06-1.19351E+06-4.30395E+06 1.27220E+06-7.14360E+05-3.55736E+05
 -1       265-9.15729E+06 4.21292E+05 4.20417E+05-7.54417E+06 3.78123E+05 2.24814E+06
 -1       266-2.31469E+06-4.55282E+05-3.99385E+05-1.04383E+07 6.14627E+05 3.09520E+06
 -1       267-1.40543E+07-1.12530E+06-1.72373E+06-5.67964E+06-8.02025E+04 2.54485E+06
 -1       268-1.04054E+07 9.53298E+04-5.08269E+05-7.05181E+06 5.86453E+05 3.60544E+06
 -1       269-2.69135E+06-1.16861E+06 3.60612E+05 8.62292E+05 4.27957E+05-2.50539E+05
 -1       270 2.54654E+06-9.20205E+05 1.09273E+06-1.10051E+07 1.44166E+05 3.55148E+06
 -1       271 5.59728E+06-2.25093E+06-1.12193E+06-3.15250E+06 8.75896E+04 9.55113E+05
 -1       272 1.15089E+06-2.76839E+06-5.12398E+05-1.00026E+07-7.51621E+05 3.84176E+06
 -1       273 2.83245E+06-1.88200E+06-9.89240E+04-7.18647E+05 7.05044E+05 3.82986E+05
 -3
    1PSTEP                        18           1           1          
    1PGM                1.000000E+00                                  
    1PGK                8.844680E+11                                  
    1PHID                         -1                                  
    1PSUBC                         0                                  
    1PMODE                         6                                  
  100CL  106 1.49679E+05         273                     2    6MODAL      1
 -4  TOSTRAIN    6    1
 -5  EXX         1    4    1    1
 -5  EYY         1    4    2    2
 -5  EZZ         1    4    3    3
 -5  EXY         1    4    1    2
 -5  EYZ         1    4    2    3
 -5  EZX         1    4    3    1
 -1         1-1.64600E+01 1.32090E+01 1.83403E+00 4.96049E-01-2.70191E+00 6.24775E+00
 -1         2 6.25235E+00 2.05535E+00 2.56926E-01 9.69703E+00-7.04336E-02 5.87392E+00
 -1         3-2.86561E+00 6.38190E-01-7.79885E-01 3.48717E+00 1.26003E+00 3.48662E+00
 -1         4 9.18638E+00 1.74684E+00-3.08092E+00-6.77176E+00-9.33646E-01-1.07746E+01
 -1         5 4.34359E-01-1.54036E-04-1.34005E-04-5.19180E+01 2.45064E-05-3.20872E+00
 -1         6 1.28778E+00-7.71521E-05-5.81191E-05-6.43462E+01-2.06800E-07 5.65809E+01
 -1         7 4.09737E+00 1.22264E+01-2.68545E+00-4.53980E+01-6.57241E+00 3.94159E+01
 -1         8 1.75420E+01-1.91275E+00 1.15036E-04-4.38155E+01-2.30726E+00-1.72052E+00
 -1         9 1.01372E+01 1.06717E-04 6.12128E-05-7.92871E+01-1.38276E-05 1.24704E+01
 -1        10-1.81353E+01 6.47413E+00 2.81852E+00-9.14778E+01-1.88666E+00 2.70147E+01
 -1        11-6.33510E+01 2.18381E+01 2.16074E+01-1.77010E+01 3.65808E+00 1.19107E+01
 -1        12-5.45540E+01 9.99758E+00 2.26573E+01 5.00387E+00-6.77679E-01-7.28680E+00
 -1        13 5.20714E+00-4.36462E+00 6.00464E+00 1.26618E+01-7.24376E+00-8.84354E+00
 -1        14 1.96284E+01-1.66006E+01 1.24596E+00 9.79257E+00-2.40198E+00-3.60675E+00
 -1        15 1.33332E+02-3.86625E+01-3.32947E+01-1.38454E+01 2.24521E+00-3.07124E+00
 -1        16 9.39723E+01-3.71815E+01-2.49468E+01 1.97126E+01-2.86494E+00 1.81834E+01
 -1        17 2.81213E+01 7.72264E-05-1.10889E-05-7.68988E+01 2.34050E-05 1.92123E+01
 -1        18-2.24996E+01 2.37257E+00 4.23151E-01-9.01290E+01-1.08789E+00 1.28642E+01
 -1        19-1.26905E+02 4.38329E+01 3.96784E+01-1.39676E+01 9.21084E-02-3.80337E+00
 -1        20-1.03412E+02 3.02700E+01 3.13394E+01 1.36192E+01 1.26930E+00 5.04394E+00
 -1        21-1.03837E+01 1.29064E+01 2.43109E+00 1.17196E+01 2.81278E+00-4.14026E+00
 -1        22-2.66714E+00 6.94748E+00-2.17395E+00 1.48358E+01 1.40464E+01-1.31440E+00
 -1        23 6.57737E+01-1.53514E+01-2.00516E+01-2.37126E+01 3.09788E+00 8.12505E+00
 -1        24 5.47248E+01-1.01125E+01-2.16219E+01 1.09537E+01-1.20248E+00-2.24872E+00
 -1        25-1.49525E+01 8.16749E-01 2.27358E+01 5.15962E+00 1.46079E+00-2.73021E+00
 -1        26-1.31782E+01-6.09368E+00 1.30461E+01-3.13215E+00-3.16553E-01-1.16715E+00
 -1        27-2.78028E+01 8.12073E+00 2.91191E+00-4.85251E+01-1.13726E+00 2.27205E+01
 -1        28 1.66979E+01 1.71914E+00 1.73816E+00-4.57690E+01 1.73125E+00 4.77002E+01
 -1        29 2.96363E+01-1.11700E+01-1.56422E+01 1.74410E+00-6.06538E-01-9.89832E+00
 -1        30-1.68299E+01 2.11731E+01-3.58827E+01 2.05850E+01-1.65093E+01 1.18184E+01
 -1        31-1.35238E+01 2.33627E+00-1.74855E+00-5.29915E+01 3.04071E-01 3.68346E+01
 -1        32 1.08332E+01-2.05384E-01 2.13108E-01-4.11962E+01-1.56191E+00 2.09374E+01
 -1        33 8.00966E+01-2.88715E+01-1.80301E+01-6.08468E+01 3.18478E+00 3.15210E+00
 -1        34 2.58889E+01-1.37442E+01-1.90764E+00-2.33437E+01 4.08940E+00-2.71656E+00
 -1        35 5.47912E+01-2.07005E+01-1.53049E+01 6.99035E+00 1.35888E+00 1.98936E+00
 -1        36 1.08885E+01-1.12381E+01 1.08490E+00-7.13927E+01 9.08925E-01 9.92682E+00
 -1        37-6.92593E+01 1.80691E+01 2.92983E+01-2.68953E+01 3.89130E+00 2.99789E+00
 -1        38-1.82338E+01 1.51815E+01 3.69891E+00 7.58791E+00-2.10150E-01-3.13354E+00
 -1        39-1.24728E+02 3.63946E+01 3.48147E+01 1.05042E+00-1.59809E-01 2.62666E+00
 -1        40-7.94419E+01 1.97383E+01 3.53910E+01 1.21575E+01 3.82463E+00-7.82926E+00
 -1        41-9.69417E+01 2.31203E+01 3.50328E+01-1.41986E+01 5.01164E+00 2.21158E+01
 -1        42 9.22087E+01-1.99610E+01-3.56119E+01-1.76034E+01 2.51565E+00 2.16464E+01
 -1        43 8.17065E+01-1.66263E+01-4.61481E+01 1.16335E+01 4.64355E+00-1.00475E+01
 -1        44 9.50574E+01-2.34403E+01-3.08177E+01-1.14021E+01 7.04686E+00 1.11128E+01
 -1        45-4.05630E+00 3.99967E+00-4.67163E+00 1.05247E+01-1.09632E+01 8.82826E-01
 -1        46 7.02696E+00 2.85318E+00-1.95867E+01 3.23728E+00-1.03896E+01 1.79677E+00
 -1        47-7.37896E+00 9.25786E+00-1.65022E+00 3.70848E+00 9.09939E+00-5.27936E+00
 -1        48 8.70998E+00-2.04882E+00 2.57704E+00-7.39362E+01 3.14264E-01 2.98377E+01
 -1        49 2.09031E+01-2.89801E+00 1.95899E+00-6.96354E+01-7.61773E-02 2.24043E+01
 -1        50-1.79076E+01 1.58380E+00-1.25730E+00-7.17830E+01 1.05182E+00 2.80237E+01
 -1        51-2.22048E+01 7.94504E-01 1.44463E+01 1.21091E+01 3.80916E+00-5.41754E+00
 -1        52 2.34449E+01-1.04226E+01-5.98401E+00 1.07326E+01 1.28711E+00 3.72985E-02
 -1        53 1.28300E+01 1.84776E+00-1.04386E+01-2.50536E+00 5.28753E-01 9.26885E-01
 -1        54 5.94529E+00-6.38739E+00-3.13372E+00-4.74325E+01 6.99382E-01 1.45232E+01
 -1        55 1.97650E+01 1.32785E-04 6.17007E-05-6.44371E+01-9.84386E-06 3.86155E+00
 -1        56-8.18209E+00 8.06501E-05 6.07250E-05-8.83342E+01-1.78114E-05 2.23978E+01
 -1        57-3.28295E+01-7.71521E-05-5.81191E-05-7.17792E+01-2.06800E-07 4.73567E+01
 -1        58-2.87469E+01 1.40903E+01 1.06143E+01-4.34114E+01 3.77679E-02 3.31453E+01
 -1        59-6.59359E+01 1.55946E+01 1.95114E+01-3.17962E+00 2.74453E+00 1.10682E+00
 -1        60-2.12520E+01 1.27079E+01 9.43915E+00 1.05434E+01-2.92727E+00-1.84530E+00
 -1        61-1.69582E+00-8.38810E-01 9.32986E+00 4.61320E+00-6.95549E+00-1.49460E+01
 -1        62 9.65686E+00-1.92264E+00 4.51257E+00 1.17640E+01-5.09880E+00-3.81448E+00
 -1        63 1.89490E+01-1.36692E+01-1.13831E+00 1.12132E+01 1.24353E+00 1.90134E+00
 -1        64 7.07064E+01-2.26319E+01-1.89283E+01-2.61084E+01-1.53362E+00-2.65210E+00
 -1        65 1.32430E+02-4.29720E+01-3.07179E+01 3.31272E+00-7.83271E-02 2.63146E+00
 -1        66 3.84529E+01-1.61219E+01-9.13361E+00 7.98701E+00-7.64384E-01 7.54358E+00
 -1        67 4.71707E+01 6.94143E-05 1.16994E-05-6.89660E+01 2.78139E-05 3.13386E+01
 -1        68 5.78083E+00 5.97195E-05-2.14734E-05-8.33938E+01 1.44637E-05 1.46184E+01
 -1        69-2.08932E+01-1.54036E-04-1.34005E-04-6.71452E+01 2.45064E-05 3.60461E+00
 -1        70-6.46546E+01 2.81316E+01 2.44734E+01-3.08727E+01-4.47561E+00-3.17008E+00
 -1        71-1.41711E+02 3.36203E+01 4.48628E+01-6.84987E-01-5.03281E-01 1.89113E+00
 -1        72-5.65879E+01 2.18107E+01 1.38902E+01 3.18392E+00-2.11073E+00 7.31460E+00
 -1        73-9.85604E+00 5.46834E+00 2.17311E+00 9.03203E+00 1.66945E+00 6.41616E-01
 -1        74-8.44313E+00 1.44277E+01-2.30667E+00 1.67475E+01 6.63248E+00-3.36242E+00
 -1        75-1.54078E+00 1.00257E+01-4.60029E+00 9.02125E+00 8.22144E+00 3.43185E+00
 -1        76 2.95752E+01 1.19071E+00-1.45606E+01-3.73155E+01-3.94265E+00 2.12255E+01
 -1        77 7.10102E+01-1.62466E+01-2.26722E+01-4.25378E+00 4.40729E+00-2.27093E-01
 -1        78 2.42520E+01-6.32877E+00-7.57089E+00 6.62752E+00-4.02448E+00-9.58117E-01
 -1        79-1.59123E+01 6.86150E+00 1.24799E+01-9.73538E-01 2.38153E-01 1.23129E+00
 -1        80-8.44261E+00-4.01052E+00 2.25664E+01 1.99044E+00 1.20499E+00-1.44866E+00
 -1        81-6.02951E+00-2.33781E+00 8.55575E+00 2.73002E+00-8.85032E-01 8.63600E-01
 -1        82-4.32790E+00-1.54036E-04-1.34005E-04-5.01111E+01 2.45064E-05 8.95319E+00
 -1        83 5.59468E+00-1.15285E-04-8.29460E-05-5.18906E+01-5.13821E-05 3.50839E+01
 -1        84 2.31223E+01-7.71521E-05-5.81191E-05-5.56942E+01-2.06800E-07 5.13062E+01
 -1        85 1.30732E+01-3.54496E+00-1.18426E+01-1.29270E-01 1.10137E+00-2.44872E+00
 -1        86 6.76616E+00-8.83209E-01-8.87252E+00 1.01766E+01-1.58469E+01-2.21140E+01
 -1        87 7.16679E+00 1.29442E+01-3.55962E+01-8.32482E-01-3.67621E+00 1.20423E+01
 -1        88-1.00709E+00 8.72943E+00 5.15466E-05-4.76141E+01-9.98262E-01 4.34827E+01
 -1        89-5.65832E+00 9.64651E-05 8.58422E-05-5.00709E+01-1.93677E-05 2.69893E+01
 -1        90 1.49571E+01-1.47587E+00 1.41703E-04-3.87692E+01-3.20173E+00 9.59715E+00
 -1        91 5.96964E+01-1.95563E+01-1.46995E+01-5.14603E+01 2.97645E+00-1.05088E+00
 -1        92 1.12446E+02-3.02946E+01-2.89830E+01-3.95027E+01 2.67304E+00 7.27589E-03
 -1        93 5.15427E+01-1.94898E+01-1.11793E+01-6.56460E+01 2.52534E+00 5.57780E+00
 -1        94 2.59356E+01-1.02077E+01-5.11123E+00-7.74107E+01-5.11781E-01 1.55385E+01
 -1        95-4.61493E+01 1.54930E+01 1.11090E+01-5.95058E+01 2.50789E-01 1.64630E+01
 -1        96-7.87024E+00 5.10006E-01 7.85106E+00-2.94621E+01 3.71789E+00-1.85818E+00
 -1        97-8.46637E+00-5.13847E+00 8.02061E+00-5.16393E+00 2.01054E+00-3.97194E+00
 -1        98-1.29464E+01-5.38161E+00 1.13295E+01 8.71327E+00-2.51203E+00-6.41589E+00
 -1        99 3.94012E+01-2.22008E+01-8.22738E+00 1.59385E+01-5.43099E+00 3.05423E+00
 -1       100 3.82973E+01-2.79439E+01-1.22547E+00 1.20416E+01-1.85814E+00-3.16808E+00
 -1       101 3.60003E+01-1.18879E+01-9.90264E+00 1.56690E+01-8.48778E-01-2.84573E-01
 -1       102 7.89272E+01-2.51222E+01-2.21716E+01 1.53525E+01-1.52784E+00 5.13802E+00
 -1       103 8.33941E+01-2.56416E+01-2.49174E+01-7.70391E-01 1.17683E+00 3.12557E+00
 -1       104 1.12837E-01 2.32646E+00 3.45460E+00-7.06975E+01-5.98216E-01 8.57087E+00
 -1       105 1.82911E+01-2.17048E+01 2.67451E+00 5.28699E+00 1.44759E+00-4.79085E+00
 -1       106 5.93331E+01-2.31461E+01-1.56861E+01-2.84634E+01-6.16748E-01 6.44967E+00
 -1       107 4.10448E+01-2.18885E+01-8.40551E+00-6.58036E+00 2.02223E+00 9.43391E-01
 -1       108 4.08132E+01-1.72385E+01-4.95397E+00-4.84263E+01 3.65483E+00 2.20304E+00
 -1       109 1.80344E+01-7.88719E+00-2.54055E+00-6.76349E+01-5.91877E+00 2.04472E+01
 -1       110 2.07499E+01-1.41039E+01 2.02517E+00-7.87878E+01-4.27446E+00 1.66337E+01
 -1       111-4.70521E+00-2.95591E-01 4.74018E+00-8.47101E+01-1.21546E+00 1.41718E+01
 -1       112-7.69953E+01 2.80115E+01 2.12318E+01-5.01857E+01-2.92228E+00 6.55337E+00
 -1       113-8.49018E+01 1.98155E+01 3.07046E+01 1.66122E-01 1.89230E+00 4.47869E+00
 -1       114-1.00569E+02 2.84068E+01 3.62088E+01-2.78885E+01 6.74353E+00 3.76023E+00
 -1       115-4.32393E+01 1.96318E+01 9.55227E+00 1.14950E+01 8.75874E+00 2.18220E+00
 -1       116 1.53059E+01 1.06271E+00-5.90327E+00 1.17673E+01-2.92521E+00-2.18846E+00
 -1       117-6.53705E+00 1.57486E+01 2.30635E+00 1.12414E+01 6.21692E-01-3.31886E+00
 -1       118-9.07562E+00 9.42996E+00-6.83309E-01 1.39715E+01 5.70429E+00-2.99860E+00
 -1       119 1.54894E+01 5.24451E+00-8.57394E+00 1.15224E+01 9.71264E-01-2.14601E+00
 -1       120 1.25083E+01 1.47014E+00-6.60980E+00-9.60386E+00 3.07068E+00-5.34282E+00
 -1       121 3.62133E+01-1.58351E+01-9.24554E+00-5.29248E+01 1.73773E+00 4.32560E+00
 -1       122-5.18507E+01 1.87372E+01 1.92652E+01-6.20990E+01 3.56569E+00 1.00315E+01
 -1       123-3.28538E+01 5.24281E+00 1.15402E+01 7.36193E+00 7.36564E+00 7.88421E-01
 -1       124-1.87731E+01 6.57494E+00 1.17727E+00-3.12432E+01 2.40532E+00-9.57270E-01
 -1       125-3.80502E+01 1.54947E+01 1.41051E+01-4.90266E+01 1.77548E+00 3.79142E+00
 -1       126-4.33206E+01 1.56770E+01 1.36897E+01-6.20455E+00-8.33244E-01 1.27902E+00
 -1       127-7.61963E+01 3.10583E+01 1.97646E+01-2.52946E+01-4.05200E+00 3.24115E+00
 -1       128-1.32890E+02 3.46668E+01 3.98980E+01-8.02159E+00 5.61463E-01 4.09674E-01
 -1       129-1.23738E+02 3.57386E+01 3.72425E+01 1.08758E+01 2.98735E+00 3.99293E+00
 -1       130-5.47876E+01 1.49932E+01 2.43265E+01 6.92613E+00 1.50227E+00 1.82141E+00
 -1       131-4.57759E+01 5.61663E+00 3.20264E+01 7.47475E+00 5.84616E+00-5.90639E+00
 -1       132-4.69179E+01 7.03788E+00 2.37882E+01 3.97439E+00 3.20501E+00-3.66947E+00
 -1       133-3.75368E+01 6.72644E+00 2.04281E+01 8.19281E-01-3.28150E+00-7.54313E+00
 -1       134-2.08498E+01 1.48386E+01 1.29142E+01-2.85491E+01 1.51830E+00 3.37393E+01
 -1       135-8.81983E+01 1.53909E+01 2.89938E+01-1.82662E+00 2.13363E+00 7.25281E+00
 -1       136-8.26780E+01 2.21604E+01 2.52094E+01-1.05904E+01 4.12375E+00 2.56461E+01
 -1       137-4.43420E+01 2.14522E+01 1.40599E+01-3.05959E+01 5.14650E+00 3.74613E+01
 -1       138-5.70456E+01 1.84705E+01 2.11860E+01-3.04694E+01 6.25634E+00 2.66573E+01
 -1       139-7.26360E+01 2.18955E+01 2.51805E+01 7.41699E+00 3.57752E+00-4.73944E+00
 -1       140-6.98609E+01 1.51120E+01 3.19717E+01 6.56776E+00 1.26459E+00-9.30991E+00
 -1       141-7.84763E+01 2.30117E+01 2.30260E+01-2.18770E+01-1.08249E+00 1.71763E+01
 -1       142-1.11237E+02 2.59929E+01 3.80219E+01-6.59292E+00 2.96394E-01 1.01465E+01
 -1       143-1.01523E+02 2.20513E+01 3.97736E+01-1.83872E+00 5.06089E+00 4.01597E+00
 -1       144-1.09375E+02 3.33865E+01 3.92528E+01 7.08169E+00-8.28567E-01-4.87633E+00
 -1       145 3.40397E+01 2.28898E-01-2.14306E+01-2.39819E+01-2.63430E+00 3.62064E+01
 -1       146 8.53540E+01-1.97567E+01-3.39336E+01-1.87846E+01 1.26218E+00 1.87237E+01
 -1       147 8.91483E+01-2.00114E+01-3.52290E+01-4.51283E+00 3.36781E+00 7.46631E+00
 -1       148 3.98054E+01-1.04805E+01-1.99461E+01 5.10538E+00-2.31865E+00-6.03587E+00
 -1       149 1.21717E+01 2.04866E+00-3.02955E+01 1.02824E+01-6.52532E+00-8.80799E+00
 -1       150 5.31466E+01-1.27559E+01-3.51275E+01 6.07856E+00 6.16373E-02-8.83905E+00
 -1       151 1.83923E+01-5.17525E+00-2.61668E+01 1.50535E+01-5.63911E+00 2.85465E+01
 -1       152 7.05698E+01-1.93699E+01-1.56643E+01-2.17613E+01-2.63023E+00 4.69839E+00
 -1       153 1.12580E+02-3.02920E+01-2.91195E+01-1.33399E+01 2.92139E+00 1.10287E+01
 -1       154 1.21227E+02-3.33168E+01-2.92021E+01 9.14159E-01 1.27090E+00 1.45667E+01
 -1       155 4.25306E+01-1.43850E+01-1.37637E+01-3.01997E+01 1.69913E+00 2.04001E+01
 -1       156 3.58730E+01-1.69297E+01-1.70557E+01-3.05342E+01 3.20599E+00 2.25787E+01
 -1       157 7.68741E+01-1.49782E+01-3.63254E+01 1.13139E+01 3.68151E+00-5.29194E+00
 -1       158 8.12712E+01-2.84036E+01-2.58022E+01 1.32365E+01 7.99872E-01 7.05476E+00
 -1       159 3.44838E+01-8.44521E+00-1.63973E+01-3.51169E+01 2.48375E+00 3.18057E+01
 -1       160 9.21290E+01-2.08925E+01-2.98443E+01-1.48632E+01 3.52782E+00 1.10206E+01
 -1       161 9.99415E+01-2.07275E+01-4.12340E+01 9.13957E-01 5.25812E+00 3.11240E+00
 -1       162 1.08737E+02-2.40994E+01-3.86531E+01-6.68319E-01 8.23542E+00-5.17854E+00
 -1       163 9.56479E+00 5.35802E-03-5.46701E+00 4.49100E+00 2.51951E+00-7.03930E+00
 -1       164 8.93640E+00-5.66325E+00-2.80979E+00 6.54250E+00-6.16741E+00-2.84316E+00
 -1       165-8.65600E+00 1.20496E+01-1.52935E+01 1.47743E+01-2.06563E+01-1.04121E+00
 -1       166-1.18720E+00 7.05299E+00-1.83914E+01 1.48877E+01-9.91949E+00 8.90145E+00
 -1       167 5.76365E+00 3.72184E+00-7.71095E+00 8.23583E+00-7.42793E+00-3.95349E+00
 -1       168 8.06063E+00-6.81100E-01-8.46568E+00 1.17418E+00-6.14153E+00 2.65098E-01
 -1       169 8.51225E+00-1.69249E+01 5.78615E+00 3.16942E+00 3.63864E-01-3.30871E-01
 -1       170-9.24428E+00 6.19475E+00 9.64376E+00 6.74852E+00 8.09928E+00 1.08394E+00
 -1       171-2.60544E+00 1.43425E+00 2.88041E+00 1.72453E+00 8.70378E+00 1.38535E+00
 -1       172-9.12076E+00 4.36466E+00 1.33445E+01 5.66004E+00 6.23887E+00-2.55738E+00
 -1       173-8.63476E+00 7.13136E+00 3.03113E+00 6.68155E+00 1.22694E+01-2.35927E+00
 -1       174-2.04586E+00 7.45872E+00-1.68096E+00 1.44894E+01 1.59986E+00-3.92696E+00
 -1       175-4.35150E+00 8.50098E+00 4.08167E-01 1.09384E+01-6.81505E-01-5.15897E+00
 -1       176 1.29181E+01 1.88777E+01-4.09180E+01 2.06340E+01-1.66155E+01 5.37096E+00
 -1       177-6.47141E-01 3.39382E+00-1.03374E+01 4.35443E+00-1.43317E+01 4.60475E+00
 -1       178 6.14903E+00 5.28221E+00-4.94106E+00 4.52325E+00 5.94847E+00-2.16488E+00
 -1       179-5.36813E+00 3.27828E+00-8.77596E+00 1.99392E+00-2.86113E+00-3.94283E+00
 -1       180-4.94000E+00 5.11113E+00-4.04801E+00 9.89678E+00-2.78151E+00-3.26825E+00
 -1       181 1.55774E+01 8.59799E-05-5.89668E-06-6.33888E+01 2.78757E-05 3.00459E+01
 -1       182 1.62114E+01 9.43491E-05 7.70515E-05-5.82547E+01-2.37471E-05 2.49937E+01
 -1       183-1.86225E+00-1.37010E-01 2.31610E-01-6.29143E+01 5.23809E-01 3.31550E+01
 -1       184 2.46075E+01 1.15548E-04 7.57912E-05-6.02230E+01-1.57130E-05 1.01055E+01
 -1       185 1.49797E+01 1.06717E-04 6.12128E-05-7.50731E+01-1.38276E-05 1.87143E+01
 -1       186 4.85125E+00 1.91963E+00 8.63783E-01-7.96829E+01-1.47359E+00 2.59788E+01
 -1       187-3.12184E+00 8.77827E-01 1.16505E+00-6.58757E+01 1.01477E+00 3.89807E+01
 -1       188-3.40383E+01 6.00005E+00-1.25325E-01-6.97169E+01-3.21037E+00 1.34900E+01
 -1       189-1.89722E+01 1.60792E+00 1.26874E+00-6.37353E+01 1.73918E+00 3.10768E+01
 -1       190-6.21325E+00-1.20132E-04-6.90374E-05-6.03049E+01-2.96888E-05 3.45351E+01
 -1       191-2.39434E+01-1.54153E-01-1.92266E-01-7.75623E+01 1.76052E+00 1.83819E+01
 -1       192 1.40389E+01 8.11325E-05-2.24831E-05-7.57295E+01 2.12006E-05 2.15602E+01
 -1       193 2.07400E+01 3.74575E-01 1.14795E+00-5.71079E+01-1.15177E+00 2.17822E+01
 -1       194-8.68804E+00 2.60600E+00 9.46714E-02-7.74239E+01 1.23930E+00 2.97044E+01
 -1       195-8.30153E+00 3.22473E-05-2.33893E-05-8.22244E+01 2.34265E-06 1.69663E+01
 -1       196-1.30640E+01 7.56052E-01 2.42269E+00-7.48406E+01-1.37100E+00 2.69052E+01
 -1       197 1.82689E+01-3.89948E+00 1.67022E-02-7.13288E+01 4.72730E-01 2.55049E+01
 -1       198 2.02982E+00 2.64154E-05 1.12206E-05-7.49502E+01 2.04291E-06 2.45834E+01
 -1       199 6.06837E+01-2.18455E+01-1.41984E+01 1.72695E+01-4.86852E-02 1.12939E+01
 -1       200 2.02443E+01-7.98728E+00 8.15066E-01 1.15181E+01-3.60031E+00-9.30498E-01
 -1       201 3.75027E+01-1.57165E+01-6.61512E+00 7.08383E+00 4.50090E+00 2.50554E+00
 -1       202 1.00357E+01 4.30157E+00-1.95995E+01 2.20066E+01-7.26240E+00 9.22121E+00
 -1       203 1.77856E+01-8.07543E+00-1.10366E+01 9.31543E+00-4.19158E+00 3.51909E+00
 -1       204-5.27061E+00 8.11673E+00 5.61993E-01 9.81830E+00-4.53929E+00-2.60834E+00
 -1       205 1.39627E+01 2.74631E+00-4.74395E+00 7.83138E+00 5.08178E-01-5.86611E+00
 -1       206-2.10801E+01 1.83562E+00 1.75195E+01 8.49168E+00 1.95419E+00-4.41608E+00
 -1       207-1.44976E+01 5.44175E+00 5.35231E+00 1.31208E+01 8.77871E+00-2.65390E+00
 -1       208-1.69157E+01 3.97719E+00 8.12227E+00 6.57386E+00 6.78731E+00-6.65367E+00
 -1       209 8.07161E+00-8.48970E+00-5.31927E+00-1.74583E+01 2.33458E+00 4.82176E+00
 -1       210-4.88784E-01-4.19777E+00 3.35609E+00 9.85073E+00 1.54152E+00-9.01868E+00
 -1       211-3.76185E+01 4.48176E+00 1.53909E+01-4.96767E+00 3.25305E+00 6.77740E+00
 -1       212-1.01220E+01-1.42306E+00 3.71566E+00-1.46264E+01 3.66982E+00 3.19063E+00
 -1       213-4.18025E+01 9.41494E+00 1.57204E+01-3.26330E+01 2.14214E+00 1.71693E+01
 -1       214-6.60888E+01 9.43579E+00 2.99219E+01-1.88855E+00 7.41709E+00 5.91058E+00
 -1       215 8.78776E+00-1.63848E+00-5.77377E+00-2.78873E+01 2.53609E+00 6.12346E+00
 -1       216 4.74133E+01-1.62263E+01-1.80454E+01-2.91374E+01 4.30871E+00 1.04171E+01
 -1       217 1.22159E+01-8.31454E-01-8.70868E+00 7.19174E+00-6.99307E-01-2.30454E+00
 -1       218 5.59089E+01-1.41717E+01-2.03409E+01-2.43836E-01 5.33657E+00 5.05707E+00
 -1       219 5.70480E+01-1.20047E+01-2.25547E+01-6.48536E+00 6.47726E+00-1.63367E+00
 -1       220-4.06181E+00 9.66128E-01 1.58084E+00 5.28669E+00 4.16239E+00-2.62366E+00
 -1       221-5.81518E+01 1.55139E+01 1.35938E+01-2.51788E+01-9.01264E-01 1.03491E+01
 -1       222-7.10308E+01 1.94866E+01 2.34410E+01 6.24993E+00 1.95742E+00-2.05453E+00
 -1       223-6.42422E+01 1.93323E+01 1.87950E+01-4.17706E+01 2.19500E+00 1.03790E+01
 -1       224-9.71823E+01 2.54284E+01 3.25573E+01-1.52314E+01 2.94969E+00 3.07630E+00
 -1       225-3.96313E+01 4.79905E+00 1.92293E+01-1.61799E+00 1.26004E+00 2.20113E-01
 -1       226-5.85249E+01 1.67870E+01 1.99615E+01 1.32450E+01 1.23490E+00-1.18723E+00
 -1       227 5.37135E+01-1.78579E+01-1.82927E+01-4.30509E+01 2.18447E+00 1.58942E+01
 -1       228-3.09435E+01 7.10697E+00 1.27413E+01-3.76197E+01 1.50194E+00 8.74615E+00
 -1       229-2.22962E+01 9.75666E+00 6.34767E+00-1.73823E+01 2.41912E+00 1.95418E+00
 -1       230-2.24995E+00 5.71244E+00-6.12445E+00 1.69524E+00-6.15337E-01-2.93474E-01
 -1       231 4.20328E+00 4.07678E+00-6.35818E+00-3.52061E+01 3.41395E+00 4.76865E+00
 -1       232-5.14537E+01 8.24376E+00 2.76722E+01 1.04110E+01 5.00058E+00-6.26453E+00
 -1       233 3.50406E+01-4.73094E+00-1.95554E+01-8.03738E+00 1.15935E+00 6.15005E+00
 -1       234 3.65722E+01-5.39770E-01-2.00991E+01 1.12030E+01 2.79271E+00-3.98078E+00
 -1       235 5.00310E+01-9.86479E+00-2.17796E+01-1.33320E+01 2.91625E-01 7.95836E+00
 -1       236 4.83563E+01-1.01854E+01-2.77061E+01 1.04221E+01 1.64979E+00-3.30054E+00
 -1       237-1.01993E+01 4.66658E+00 1.59245E+00 1.38169E+01-1.09410E+00-4.40908E+00
 -1       238-1.84082E+01 6.61421E+00 5.46341E+00 1.02354E+01 1.95586E+00-2.33841E+00
 -1       239 4.51929E+01-1.06773E+01-1.17079E+01-4.50818E+01 2.10933E+00 2.95494E+01
 -1       240 4.90703E+01-1.44670E+01-1.32273E+01-4.15392E+01 3.10787E+00 1.91784E+01
 -1       241-2.54431E+01 1.58044E+00 1.50959E+01 1.19520E+01 5.99722E-01-5.69446E+00
 -1       242-3.75168E+01 1.21820E+01 1.45868E+01 7.91886E+00 7.86214E+00-5.09880E+00
 -1       243-2.20131E+01 4.61127E+00 9.66198E+00 1.12898E+01 1.22713E+00-7.32741E+00
 -1       244 1.88485E+01-1.27805E+01-9.31755E-02 9.36159E+00-1.62684E+00-1.32629E+00
 -1       245 5.54029E+00-1.56301E+00-3.46607E+00 7.40977E+00 2.08369E+00-6.42033E+00
 -1       246 5.21556E+01-1.79396E+01-7.54320E+00-6.30951E+01 1.06286E+00 1.21164E+01
 -1       247 3.77846E+01-1.84381E+01-9.01124E+00-5.65244E+01 2.46237E+00 1.08957E+01
 -1       248 1.79082E+01-9.96641E+00-2.21719E+00-6.08400E+01 1.49844E+00 2.02775E+01
 -1       249-3.23302E+00 1.48226E+00 2.38880E+00-6.70600E+01-3.52031E-01 2.28044E+01
 -1       250 5.56485E+01-1.51062E+01-1.14988E+01-4.92451E+01 1.40629E+00 1.05833E+01
 -1       251 1.14188E+01-1.57833E+00-8.88055E+00 1.20179E+01-4.41824E+00 5.30080E-01
 -1       252 6.21646E+00 1.85836E+00-1.09066E+01 9.10565E+00-4.57443E+00-1.43049E+00
 -1       253 4.38322E+01-1.28084E+01-1.37139E+01-3.77094E+01 1.58127E+00 1.61011E+01
 -1       254 6.02368E+00-3.09115E+00-7.36003E-01-5.51683E+01 2.98492E+00 1.30718E+01
 -1       255-3.12040E+01 2.94811E+00 1.48249E+01-2.06618E+01 2.17817E+00 9.74215E+00
 -1       256 7.19110E+01-1.82154E+01-2.21784E+01-3.06839E-01 2.48470E+00 1.10910E+01
 -1       257-8.71771E+00 1.72126E+00-8.14817E-01-6.05062E+01-1.38591E+00 2.34558E+01
 -1       258 1.00902E+01-7.58123E+00 3.76815E-01-6.45833E+01-7.78197E-01 2.35708E+01
 -1       259 5.16657E+01-1.50170E+01-1.14988E+01-4.03182E+01 3.06699E+00 1.73632E+01
 -1       260-4.51237E+01 1.72635E+01 1.36262E+01-5.69808E+01 2.28936E+00 2.68932E+01
 -1       261 1.29798E+01-5.72862E+00-1.49196E+00-3.34715E+01 4.18434E+00 6.31230E+00
 -1       262 8.07279E+01-2.31011E+01-2.15954E+01-3.54730E+01 1.99864E+00 1.48910E+01
 -1       263 5.09096E+01-1.23760E+01-2.60959E+01 1.33424E+01 7.76876E-01-6.34867E+00
 -1       264 3.28677E+01-6.89811E+00-2.71159E+01 8.26932E+00-4.64334E+00-2.31228E+00
 -1       265-4.70490E+01 1.52118E+01 1.52061E+01-4.90371E+01 2.45780E+00 1.46129E+01
 -1       266-1.02914E+01 1.79470E+00 2.15803E+00-6.78488E+01 3.99507E+00 2.01188E+01
 -1       267-6.59981E+01 1.80405E+01 1.41508E+01-3.69176E+01-5.21316E-01 1.65415E+01
 -1       268-5.14074E+01 1.68471E+01 1.29237E+01-4.58368E+01 3.81194E+00 2.34353E+01
 -1       269-1.22448E+01-2.34694E+00 7.59300E+00 5.60490E+00 2.78172E+00-1.62850E+00
 -1       270 1.24739E+01-1.00599E+01 3.02413E+00-7.15332E+01 9.37076E-01 2.30846E+01
 -1       271 3.30457E+01-1.79677E+01-1.06292E+01-2.04913E+01 5.69332E-01 6.20823E+00
 -1       272 1.06756E+01-1.47997E+01-1.35736E-01-6.50167E+01-4.88554E+00 2.49715E+01
 -1       273 1.71336E+01-1.35103E+01-1.92028E+00-4.67120E+00 4.58278E+00 2.48941E+00
 -3
    1PSTEP                        19           1           1          
    1PGM                1.000000E+00                                  
    1PGK                1.245566E+12                                  
    1PHID                         -1                                  
    1PSUBC                         0                                  
    1PMODE                         7                                  
  100CL  107 1.77625E+05         273                     2    7MODAL      1
 -4  DISP        4    1
 -5  D1          1    2    1    0
 -5  D2          1    2    2    0
 -5  D3          1    2    3    0
 -5  ALL         1    2    0    0    1ALL
 -1         1-1.02045E+03 6.26887E+02-6.31617E+02
 -1         2 1.03563E+03-6.36490E+02-6.30904E+02
 -1         3 1.02541E+03 6.32924E+02 6.25259E+02
 -1         4-1.03856E+03-6.27980E+02 6.45425E+02
 -1         5 0.00000E+00 0.00000E+00 0.00000E+00
 -1         6 0.00000E+00 0.00000E+00 0.00000E+00
 -1         7 0.00000E+00 0.00000E+00 0.00000E+00
 -1         8 0.00000E+00 0.00000E+00 0.00000E+00
 -1         9 0.00000E+00 0.00000E+00 0.00000E+00
 -1        10 0.00000E+00 0.00000E+00 0.00000E+00
 -1        11 3.44722E+02-4.41293E+01-6.02630E+01
 -1        12 8.23443E+02-2.29899E+02-2.66050E+02
 -1        13-3.95727E+02-5.27348E+02 3.38167E+02
 -1        14 4.25007E+02-5.54242E+02-3.57566E+02
 -1        15-3.51074E+02-5.15521E+01 5.18400E+01
 -1        16-8.26225E+02-2.58139E+02 2.44907E+02
 -1        17 0.00000E+00 0.00000E+00 0.00000E+00
 -1        18 0.00000E+00 0.00000E+00 0.00000E+00
 -1        19-3.41926E+02 5.74557E+01-5.30286E+01
 -1        20-7.97380E+02 2.45016E+02-2.42225E+02
 -1        21 4.10417E+02 5.10793E+02 3.69617E+02
 -1        22-4.10491E+02 5.32008E+02-3.58054E+02
 -1        23 3.45302E+02 5.42132E+01 5.61620E+01
 -1        24 7.95483E+02 2.54362E+02 2.29502E+02
 -1        25-3.93109E+02 3.49023E+02-5.22805E+02
 -1        26 4.63309E+02-4.27273E+02-5.25288E+02
 -1        27 0.00000E+00 0.00000E+00 0.00000E+00
 -1        28 0.00000E+00 0.00000E+00 0.00000E+00
 -1        29 4.33481E+02 3.75620E+02 5.26840E+02
 -1        30-4.71979E+02-4.12361E+02 5.58302E+02
 -1        31 0.00000E+00 0.00000E+00 0.00000E+00
 -1        32 0.00000E+00 0.00000E+00 0.00000E+00
 -1        33-1.10879E+02 7.18928E+01 2.59737E+01
 -1        34 2.23768E+02 2.55245E+01-7.10152E+01
 -1        35-2.61341E+02-6.96272E+01 1.08891E+02
 -1        36 1.00920E+02-6.91824E+01 2.24737E+01
 -1        37-2.36458E+02-8.81959E+00-7.00873E+01
 -1        38 2.83094E+02 4.45124E+01 1.14319E+02
 -1        39-2.82297E+02 9.04104E+01-1.97954E+01
 -1        40 1.88366E+02-8.24589E+01-1.00336E+02
 -1        41 1.48527E+02-2.72136E+01 6.55146E+01
 -1        42 2.16848E+02 4.43021E+01-3.49331E+01
 -1        43 4.18269E+01 1.99052E+01 6.27407E+01
 -1        44-1.14226E+02-2.76400E+01-7.19244E+01
 -1        45 9.90027E+01 3.11767E+02 3.18910E+02
 -1        46-1.05664E+02-4.46253E+02 2.08811E+02
 -1        47 8.79222E+00-4.38258E+01-4.11700E+02
 -1        48 0.00000E+00 0.00000E+00 0.00000E+00
 -1        49 0.00000E+00 0.00000E+00 0.00000E+00
 -1        50 0.00000E+00 0.00000E+00 0.00000E+00
 -1        51-1.29293E+02 1.28809E+02-1.56365E+02
 -1        52-3.56459E+01-1.49204E+02 3.32906E+01
 -1        53 7.60645E+01 5.61230E+01 5.65369E+01
 -1        54-1.75690E+00 8.91753E+00 1.08116E+00
 -1        55 0.00000E+00 0.00000E+00 0.00000E+00
 -1        56 0.00000E+00 0.00000E+00 0.00000E+00
 -1        57 0.00000E+00 0.00000E+00 0.00000E+00
 -1        58 1.45514E+02-3.03311E+01-2.93981E+01
 -1        59 5.78452E+02-1.05255E+02-1.31893E+02
 -1        60 9.68612E+02-4.11990E+02-4.26961E+02
 -1        61-7.56499E+02-5.92213E+02 5.73373E+02
 -1        62 5.37194E+00-5.14483E+02-4.09793E+00
 -1        63 7.61019E+02-6.05813E+02-5.74003E+02
 -1        64-1.57054E+02-3.44696E+01 1.89934E+01
 -1        65-5.84543E+02-1.20405E+02 1.24299E+02
 -1        66-9.70557E+02-4.23672E+02 4.21802E+02
 -1        67 0.00000E+00 0.00000E+00 0.00000E+00
 -1        68 0.00000E+00 0.00000E+00 0.00000E+00
 -1        69 0.00000E+00 0.00000E+00 0.00000E+00
 -1        70-1.44678E+02 2.50937E+01-3.57054E+01
 -1        71-5.64664E+02 1.23741E+02-1.15723E+02
 -1        72-9.50290E+02 4.18025E+02-4.18272E+02
 -1        73 7.58801E+02 5.90757E+02 5.72614E+02
 -1        74 1.43521E+01 4.97472E+02 1.18148E+01
 -1        75-7.54928E+02 5.95401E+02-5.75489E+02
 -1        76 1.61233E+02 2.42980E+01 2.57085E+01
 -1        77 5.69853E+02 1.26704E+02 1.22484E+02
 -1        78 9.51174E+02 4.27003E+02 4.08018E+02
 -1        79-7.46643E+02 5.64836E+02-5.94369E+02
 -1        80 5.30426E+01-4.02780E+01-4.91445E+02
 -1        81 7.89203E+02-5.89151E+02-5.97614E+02
 -1        82 0.00000E+00 0.00000E+00 0.00000E+00
 -1        83 0.00000E+00 0.00000E+00 0.00000E+00
 -1        84 0.00000E+00 0.00000E+00 0.00000E+00
 -1        85 7.63997E+02 5.78590E+02 5.92201E+02
 -1        86-1.80152E+01-1.76006E+01 5.05698E+02
 -1        87-7.85514E+02-5.85371E+02 6.17209E+02
 -1        88 0.00000E+00 0.00000E+00 0.00000E+00
 -1        89 0.00000E+00 0.00000E+00 0.00000E+00
 -1        90 0.00000E+00 0.00000E+00 0.00000E+00
 -1        91-8.03481E+01 2.42798E+01 1.71446E+01
 -1        92-2.38557E+02 1.84825E+01 4.41313E+01
 -1        93-4.68245E+01 5.20483E+01 1.16253E+01
 -1        94-6.13778E+00 6.25677E+01 5.51012E-01
 -1        95 1.25108E+02 1.82499E+01-3.01180E+01
 -1        96 3.36035E+02-1.26153E+00-7.59020E+01
 -1        97 5.06587E+02-8.34150E+01-1.65864E+02
 -1        98 7.05879E+02-3.49504E+02-3.93203E+02
 -1        99-7.01511E+02-3.47825E+02 3.95982E+02
 -1       100 2.30994E+01-2.01787E+02-1.57901E+01
 -1       101-3.38342E+02-2.26832E+02 1.95208E+02
 -1       102-5.57290E+02-1.57903E+02 2.12535E+02
 -1       103-3.97584E+02-3.38134E+01 9.65863E+01
 -1       104 1.04911E+02 6.55276E+01-2.25452E+01
 -1       105 3.36445E+02-1.51704E+02-1.73477E+02
 -1       106-1.90626E+02 3.34872E+01 5.02697E+01
 -1       107 1.91459E+01 4.94382E+00-8.70400E+00
 -1       108 1.37201E+01 7.33977E+01-5.71899E+00
 -1       109 8.23980E+01-2.72945E+01 1.79566E+01
 -1       110 4.31422E+01-5.02393E+01 1.38648E+01
 -1       111 1.32869E+01-5.66264E+01 1.16650E+01
 -1       112-1.09668E+02-2.55819E+01-2.01226E+01
 -1       113-5.05143E+02 9.92075E+01-1.53970E+02
 -1       114-3.29696E+02 1.95026E+01-5.89167E+01
 -1       115-6.98247E+02 3.51407E+02-3.89116E+02
 -1       116 7.01413E+02 3.57429E+02 3.87219E+02
 -1       117 3.64483E+02 2.29084E+02 2.18036E+02
 -1       118-5.61396E+00 2.04878E+02-1.28974E+01
 -1       119 5.61576E+02 1.55823E+02 2.16646E+02
 -1       120 3.96656E+02 3.64927E+01 9.49009E+01
 -1       121 2.29652E+02-1.52613E+01 3.78946E+01
 -1       122-9.34279E+01-5.53835E+01-1.20277E+01
 -1       123-3.43150E+02 1.57563E+02-1.71573E+02
 -1       124 1.91683E+02-3.06102E+01 4.98699E+01
 -1       125-2.15581E+01-6.21173E+01-8.25362E+00
 -1       126-1.12293E+01-5.90290E+00-1.13894E+01
 -1       127-1.27322E+02 2.68448E+01 9.65084E+00
 -1       128-3.62937E+02 8.39083E+01-2.45130E+01
 -1       129-5.35913E+02 1.76865E+02-1.18175E+02
 -1       130-6.89234E+02 3.88710E+02-3.47490E+02
 -1       131-6.93916E+01 6.49747E+01-2.51258E+02
 -1       132 3.31006E+02-2.30074E+02-2.75740E+02
 -1       133 7.29686E+02-3.91567E+02-3.62326E+02
 -1       134 1.14913E+02-2.02584E+01 2.10645E+01
 -1       135 4.51271E+02-1.16484E+02-6.56011E+01
 -1       136 2.75616E+02-3.80782E+01 5.61683E+00
 -1       137 6.62892E+01-7.65460E+00 5.65457E+01
 -1       138-3.47698E+00 5.60798E+00 6.87672E+01
 -1       139-3.64385E+02 1.97300E+02-1.78547E+02
 -1       140 5.47910E+02-2.41434E+02-1.78958E+02
 -1       141-1.34473E+02 2.85774E+01 5.14020E+01
 -1       142-4.30205E+01 1.71915E+01 4.09505E+01
 -1       143 1.78163E+02-5.39276E+01-3.34177E+00
 -1       144-9.35740E+01 4.88040E+01-3.36467E+01
 -1       145 1.35645E+02 2.76361E+01-1.24440E+01
 -1       146 2.95666E+02 5.22172E+01 1.01190E+01
 -1       147 4.79717E+02 1.24457E+02 7.51612E+01
 -1       148 7.05428E+02 3.82999E+02 3.43847E+02
 -1       149-1.98278E+02-1.38237E+02 2.58142E+02
 -1       150 2.31664E+02 1.55573E+02 2.51276E+02
 -1       151-7.29634E+02-4.03094E+02 3.62931E+02
 -1       152-1.24129E+02-2.50130E+01-2.22178E+01
 -1       153-2.63784E+02-4.57719E+01-1.45695E+01
 -1       154-4.35457E+02-1.14035E+02 5.15037E+01
 -1       155-5.68701E+01-8.06915E+00-5.99504E+01
 -1       156 1.81482E+00-5.83806E-01-6.82354E+01
 -1       157 4.79817E+02 2.10740E+02 1.37933E+02
 -1       158-4.45563E+02-1.98248E+02 1.31543E+02
 -1       159 8.90026E+01 2.15280E+01-4.38609E+01
 -1       160 5.20063E+01 1.34864E+01-6.61466E+01
 -1       161 1.86028E+02 5.98648E+01-1.01973E+01
 -1       162-6.93695E+01-2.44095E+01-2.41629E+01
 -1       163 5.40563E+02 5.85014E+02 5.77905E+02
 -1       164 2.60221E+02 3.38638E+02 5.50704E+02
 -1       165-5.06928E+01-6.51882E+01 5.48411E+02
 -1       166-5.56064E+02-5.95434E+02 5.76677E+02
 -1       167-2.28779E+02-5.85617E+02 2.77408E+02
 -1       168 7.07501E+01-5.88322E+02-8.47678E+01
 -1       169 5.62027E+02-5.93343E+02-5.78754E+02
 -1       170-5.28708E+02 5.70812E+02-5.81416E+02
 -1       171 1.82925E+02-2.44408E+02-5.75221E+02
 -1       172-1.30876E+02 1.58963E+02-5.78505E+02
 -1       173-2.30432E+02 4.79004E+02-3.77193E+02
 -1       174-2.69685E+01 5.53611E+02-1.65893E+01
 -1       175 2.48198E+02 5.57480E+02 3.39090E+02
 -1       176-3.08060E+02-4.25673E+02 5.36827E+02
 -1       177-2.94553E+01-9.28708E+01 2.59167E+02
 -1       178 2.47241E+02-5.00644E+02-3.74590E+02
 -1       179 2.90521E+01-2.61886E+02-1.17548E+02
 -1       180-1.12568E+01 1.39262E+02-6.41394E+01
 -1       181 0.00000E+00 0.00000E+00 0.00000E+00
 -1       182 0.00000E+00 0.00000E+00 0.00000E+00
 -1       183 0.00000E+00 0.00000E+00 0.00000E+00
 -1       184 0.00000E+00 0.00000E+00 0.00000E+00
 -1       185 0.00000E+00 0.00000E+00 0.00000E+00
 -1       186 0.00000E+00 0.00000E+00 0.00000E+00
 -1       187 0.00000E+00 0.00000E+00 0.00000E+00
 -1       188 0.00000E+00 0.00000E+00 0.00000E+00
 -1       189 0.00000E+00 0.00000E+00 0.00000E+00
 -1       190 0.00000E+00 0.00000E+00 0.00000E+00
 -1       191 0.00000E+00 0.00000E+00 0.00000E+00
 -1       192 0.00000E+00 0.00000E+00 0.00000E+00
 -1       193 0.00000E+00 0.00000E+00 0.00000E+00
 -1       194 0.00000E+00 0.00000E+00 0.00000E+00
 -1       195 0.00000E+00 0.00000E+00 0.00000E+00
 -1       196 0.00000E+00 0.00000E+00 0.00000E+00
 -1       197 0.00000E+00 0.00000E+00 0.00000E+00
 -1       198 0.00000E+00 0.00000E+00 0.00000E+00
 -1       199-3.77697E+02-2.09494E+02 2.06172E+02
 -1       200-1.69310E+02-3.57581E+02 1.51995E+02
 -1       201-1.34489E+02-1.46297E+02 7.74906E+01
 -1       202-2.58992E+02-2.80141E+02 3.39177E+02
 -1       203-7.03329E+01-2.83616E+02 1.00641E+02
 -1       204 2.24859E+02 3.08980E+02 1.96386E+02
 -1       205 4.95216E+02 3.41446E+02 3.38295E+02
 -1       206-2.56876E+02 2.37332E+02-3.66412E+02
 -1       207-2.84981E+02 3.61575E+02-2.64920E+02
 -1       208-7.22694E+01 1.01503E+02-2.66748E+02
 -1       209-8.07516E+00-3.11186E+01 1.00049E+01
 -1       210 1.17606E+00-2.29499E+01-7.57019E+01
 -1       211 1.38308E+02-5.79451E+01-6.58634E+01
 -1       212-1.05609E+01 2.21393E+01-2.74946E+01
 -1       213 5.22815E+01 1.21823E+00 1.35395E+01
 -1       214-4.26245E+00 8.88137E+00-5.76426E+01
 -1       215 6.68315E+00 1.13441E+01 9.79016E+00
 -1       216-4.95122E+01-5.64225E-01-2.20046E+01
 -1       217-7.58337E+00-1.74882E+01 5.41555E+01
 -1       218-1.49164E+02-5.73668E+01 5.87050E+01
 -1       219 2.11574E+00 1.25285E+00 9.28136E+00
 -1       220-1.31396E+01 7.96103E+01-1.31837E+01
 -1       221-4.92988E+01 2.06219E+01-4.90615E+00
 -1       222-2.15346E+02 1.09672E+02-1.11418E+02
 -1       223-1.36460E+02-4.22646E+00 9.12372E+00
 -1       224-3.21227E+02 7.05531E+01-6.32520E+01
 -1       225-2.13794E+02 1.05047E+02-9.84836E+01
 -1       226-4.38153E+02 2.20579E+02-2.15539E+02
 -1       227 1.95112E+02-4.99667E+00 3.62889E+00
 -1       228-4.46180E+01 3.64339E+00-7.55019E+00
 -1       229-1.22636E+01 3.90561E+01-7.19415E+00
 -1       230 1.78122E+02 9.08943E+01 7.73542E+01
 -1       231 1.18923E+02 9.50568E-01 2.05121E+01
 -1       232-3.33296E+01 3.38426E+01-1.79191E+02
 -1       233 3.27606E+02 6.04472E+01 7.18630E+01
 -1       234 3.33730E+02 1.65019E+02 1.65618E+02
 -1       235 1.63945E+02 4.18255E+01 2.12183E+01
 -1       236 9.15306E+01 5.37311E+01 1.08578E+02
 -1       237-2.46479E+01 2.05467E+02-4.05112E+01
 -1       238-3.06051E+01 1.52067E+02-1.31374E+01
 -1       239 5.67184E+01-3.04714E+00-3.50465E+01
 -1       240-1.92220E+00 2.38800E+00-4.34943E+01
 -1       241 4.64734E+02-3.71975E+02-3.75450E+02
 -1       242 9.84328E+01-8.51554E+01-3.54871E+02
 -1       243 1.49363E+02-1.23819E+02-1.71737E+02
 -1       244 1.21214E+02-3.57716E+02-1.11604E+02
 -1       245 3.82035E+01-1.60710E+02-1.25700E+02
 -1       246-3.38497E+01 4.25114E+01-5.74620E+00
 -1       247-3.82379E+01 3.38450E+01 1.37280E+00
 -1       248-1.08434E+01 2.24980E+01-9.53446E+00
 -1       249 2.11503E+01 3.82584E+01 3.85680E+00
 -1       250-7.06622E+01 1.21968E+01-1.22220E+01
 -1       251-2.07495E+01-4.60485E+01 1.37203E+02
 -1       252 9.03368E+01 1.50033E+02 1.59585E+02
 -1       253 4.90780E+01 2.61742E+00-1.86744E+01
 -1       254 3.81067E+01-2.00358E+01 1.19487E+00
 -1       255 2.57530E+02-2.32647E+01-4.31587E+01
 -1       256-2.85739E+02-5.80118E+01 6.78348E+01
 -1       257-2.88758E+00 3.80143E+00 1.03619E+01
 -1       258 9.78762E+00-1.11741E+00-1.25522E+01
 -1       259-5.00331E+01 6.24186E+00-3.52286E+01
 -1       260 9.77707E+01 1.48961E+01 1.64324E+01
 -1       261 5.77036E+01 1.03198E+01-1.52559E+01
 -1       262-1.75881E+02 2.96339E+00-3.57437E+00
 -1       263-1.00633E+02-8.16357E+01 1.74960E+02
 -1       264 1.25615E+02 1.20047E+02 3.28300E+02
 -1       265-5.37848E+01-2.43194E+01 1.78181E+01
 -1       266-5.96955E-02-2.74971E+01-3.78042E-02
 -1       267-5.00954E+01 6.05262E+00 4.22983E+01
 -1       268 2.65607E+01 7.81370E+00 4.47108E+01
 -1       269 3.33832E+02-1.90475E+02-1.85714E+02
 -1       270 3.21794E+01-3.35156E+01-7.16615E+00
 -1       271-6.18272E+01-2.09337E+01 2.02273E+01
 -1       272 6.80210E+01-1.17482E+01-1.11587E+01
 -1       273 9.34528E+01-7.78613E+01-3.64271E+01
 -3
    1PSTEP                        20           1           1          
    1PGM                1.000000E+00                                  
    1PGK                1.245566E+12                                  
    1PHID                         -1                                  
    1PSUBC                         0                                  
    1PMODE                         7                                  
  100CL  107 1.77625E+05         273                     2    7MODAL      1
 -4  STRESS      6    1
 -5  SXX         1    4    1    1
 -5  SYY         1    4    2    2
 -5  SZZ         1    4    3    3
 -5  SXY         1    4    1    2
 -5  SYZ         1    4    2    3
 -5  SZX         1    4    3    1
 -1         1-2.38469E+06 1.73416E+06 2.12738E+06 5.95708E+05 1.75943E+06-5.79776E+05
 -1         2 2.25300E+06-2.24488E+06-1.70823E+06-4.63000E+05 1.52158E+06-7.97143E+05
 -1         3 2.79437E+06-2.48415E+06-1.95005E+06 3.21625E+05 1.94833E+06 6.55536E+05
 -1         4-2.68386E+06 2.04862E+06 1.47531E+06-1.80769E+05 1.54115E+06 8.18838E+05
 -1         5-1.94954E+07-8.35523E+06-8.35523E+06 1.00963E+06 3.25422E+00-2.11228E+06
 -1         6 1.95405E+07 8.37456E+06 8.37456E+06-1.81594E+06 2.43504E+00-1.34862E+06
 -1         7 2.18287E+07 5.30700E+06 6.51533E+06 1.60595E+05 7.50497E+05 8.83297E+05
 -1         8-2.06443E+07-6.85915E+06-8.25108E+06-8.58207E+04 1.68938E+05 1.00582E+06
 -1         9-7.70569E+06-3.30246E+06-3.30246E+06 3.92681E+06-1.28641E+00 5.91398E+05
 -1        10 1.02226E+07 2.70269E+06 2.79015E+06 3.75486E+06 2.54569E+05-4.47096E+05
 -1        11 2.54394E+07-2.21607E+06-2.35809E+06 1.14086E+06 1.15092E+05 9.16503E+05
 -1        12 2.19534E+07-3.53165E+06-3.83528E+06 2.53109E+06 3.82169E+06 1.78649E+06
 -1        13-8.50752E+05 5.95275E+06-1.38935E+06 2.88867E+06-7.56089E+06 9.71795E+05
 -1        14 1.66848E+06-5.62059E+06 9.90818E+04 3.41589E+06-9.43327E+06-1.97005E+06
 -1        15-2.57368E+07 9.77831E+05 1.02686E+06 1.54696E+06 1.94861E+05-5.19612E+05
 -1        16-2.12147E+07 3.58074E+06 3.70639E+06 2.06237E+06 4.26625E+06-2.17642E+06
 -1        17 7.29353E+06 3.12582E+06 3.12582E+06-3.83260E+06-4.08450E+00 9.59373E+05
 -1        18-6.38584E+06-2.27039E+06-2.13354E+06-4.00579E+06-1.64177E+05 3.30261E+05
 -1        19-2.50531E+07 1.69516E+06 1.80387E+06-9.81695E+05 1.34672E+04 8.96628E+05
 -1        20-2.18069E+07 3.31962E+06 3.13444E+06-1.33005E+06 4.13155E+06 1.34127E+06
 -1        21-2.25806E+05-8.11595E+06 1.24281E+06-4.46003E+06-7.52169E+06 8.82029E+05
 -1        22-1.34238E+06 5.52231E+06 2.98472E+04-4.54379E+06-9.70936E+06-9.52048E+05
 -1        23 2.53438E+07-4.56762E+05 2.96297E+04-1.10722E+06-2.10945E+05-3.71138E+05
 -1        24 2.18094E+07-2.85802E+06-3.95882E+06-7.86562E+05 3.76050E+06-1.42447E+06
 -1        25-7.31882E+05-4.51906E+05 6.86787E+06 8.41022E+05-7.42674E+06 4.41633E+06
 -1        26 4.24471E+05 8.83745E+05-7.78209E+06-7.53361E+05-6.45981E+06 3.73331E+06
 -1        27-1.28772E+07-3.67810E+06-3.67568E+06 9.37704E+05 3.07035E+05 2.97456E+06
 -1        28 8.49840E+06 3.16621E+06 3.54169E+06-2.26636E+05-1.66713E+05 3.41349E+06
 -1        29 1.34784E+06 1.42486E+06-6.79841E+06 2.00124E+06-8.55438E+06-3.33305E+06
 -1        30-7.90796E+05-2.67418E+05 6.29326E+06-1.17700E+06-9.76650E+06-2.51773E+06
 -1        31 1.21006E+07 4.76391E+06 4.09419E+06 1.05262E+06 1.87078E+05-3.38166E+06
 -1        32-1.02490E+07-3.67245E+06-3.38515E+06-7.03577E+05-6.46166E+03-3.85494E+06
 -1        33-1.12502E+07 1.45590E+06 1.05660E+06 4.72248E+06 1.01092E+06 6.31880E+04
 -1        34 9.06534E+06-2.34304E+06 1.04266E+05 6.34767E+06 7.29951E+05 6.42518E+05
 -1        35-7.13546E+06 4.00239E+06 1.35729E+05 7.29194E+06-7.37495E+05 6.90957E+04
 -1        36 9.80386E+06-8.42784E+05-6.91009E+05-4.14055E+06 1.57929E+06-1.44124E+05
 -1        37-1.09680E+07 2.47858E+06 8.54942E+05-5.87555E+06 1.31140E+06 3.37494E+05
 -1        38 9.00746E+06-4.04504E+06-2.73942E+05-7.02151E+06 6.16221E+05 7.03210E+05
 -1        39-9.90908E+06-1.11390E+05 2.06154E+06-5.81530E+05 1.11813E+05 6.11529E+06
 -1        40 4.91215E+06 4.17065E+04-3.99596E+06-1.24031E+06-1.18478E+06 8.18499E+06
 -1        41 9.61758E+06-3.28659E+05-1.76281E+06 2.21313E+05 2.04660E+06 5.32840E+06
 -1        42 1.46333E+07-4.24512E+05-1.61741E+06-4.98588E+05 7.09038E+05-4.43574E+06
 -1        43 1.97191E+06 2.05732E+05-9.69035E+05-1.74745E+05-8.95324E+05-8.94433E+06
 -1        44-8.45551E+06 1.03525E+05 1.08477E+06-1.71368E+05 1.69699E+06-5.19846E+06
 -1        45 5.08878E+04-1.38484E+05-7.01595E+05 9.19619E+05-3.19223E+07 6.37414E+05
 -1        46 1.27149E+05-1.78226E+05 7.05252E+05 1.96070E+05-3.17873E+07-4.64306E+04
 -1        47-2.13123E+05-6.89844E+05 8.00875E+05 1.32772E+05-3.37383E+07-6.11560E+05
 -1        48 3.22652E+06 9.04989E+05 1.14470E+06-8.79089E+05 6.96583E+05-1.45939E+06
 -1        49-3.82834E+06-1.53424E+06-1.69512E+06 2.19421E+06 3.73633E+05-1.10101E+06
 -1        50-4.87868E+05-6.96286E+04-3.08162E+05 5.40234E+04 1.18135E+06 1.53484E+06
 -1        51-3.21137E+06 1.22621E+06 7.61581E+05-2.30109E+05-1.05077E+07 1.04365E+06
 -1        52-1.14067E+06 1.96655E+05 2.51053E+05 1.37476E+06-1.24379E+07-2.32385E+04
 -1        53 2.20595E+06-1.13081E+06-7.95637E+04-7.81555E+05-4.50322E+06-1.08397E+06
 -1        54 4.96122E+04 3.47710E+05-1.86397E+05 4.68610E+05 1.25435E+06-1.07383E+05
 -1        55-1.44664E+07-6.19992E+06-6.19991E+06 2.32678E+06-2.18612E+00 9.09420E+05
 -1        56 4.99622E+05 2.14112E+05 2.14106E+05 4.53293E+06-3.86711E-01-4.67020E+04
 -1        57 1.61803E+07 6.93446E+06 6.93446E+06 4.69695E+05 2.43504E+00-1.38249E+06
 -1        58 2.15493E+07 9.98297E+05 5.53530E+05-1.28123E+05-4.44711E+05 3.09750E+04
 -1        59 2.69545E+07-6.62020E+05-1.19791E+06 1.54737E+06 1.17293E+05 9.08886E+05
 -1        60 1.07700E+07-4.03970E+06-3.58552E+06 1.00070E+06 3.86718E+06 8.81491E+05
 -1        61-9.33786E+05 5.08706E+06-1.16831E+06 1.32661E+06-3.30788E+06 1.20845E+06
 -1        62-1.01751E+06-2.32757E+06-9.94471E+05 3.48238E+06-8.78975E+06 1.58005E+05
 -1        63 1.57632E+06-3.71047E+06 2.37450E+06 8.42730E+05-4.11727E+06-1.96803E+06
 -1        64-2.16663E+07 1.59331E+05-1.45683E+06 3.62540E+05-7.52626E+04-3.26550E+05
 -1        65-2.63816E+07 1.07533E+06 1.23240E+06 1.41714E+06 7.26564E+05-1.11189E+06
 -1        66-1.06512E+07 4.94715E+06 3.92308E+06 1.12059E+06 4.65868E+06-8.31257E+05
 -1        67 1.52857E+07 6.55103E+06 6.55104E+06-2.49792E+06-3.05113E+00 1.19739E+06
 -1        68 1.21524E+06 5.20825E+05 5.20831E+05-4.20413E+06-3.38389E+00 8.31414E+05
 -1        69-1.37303E+07-5.88447E+06-5.88447E+06-1.37455E+06 3.25422E+00-1.37914E+06
 -1        70-2.16278E+07-1.13640E+06-1.24698E+06-1.69952E+05-5.94319E+05-4.25825E+05
 -1        71-2.58032E+07 7.47507E+05 4.93066E+05-1.22274E+06 4.03587E+05 9.63204E+05
 -1        72-1.14941E+07 3.61041E+06 3.83413E+06-4.96752E+05 4.42482E+06 6.18762E+05
 -1        73 1.10670E+05-6.99299E+06 5.26652E+05-2.08109E+06-2.59644E+06 1.15493E+06
 -1        74-1.43006E+05 1.18437E+06-3.70766E+05-5.84695E+06-9.20978E+06 1.07833E+06
 -1        75-8.84001E+05 4.82078E+06-1.48774E+06-1.28076E+06-3.80997E+06-1.41895E+06
 -1        76 2.12973E+07 2.49877E+05 3.44004E+05-4.65299E+05 1.47031E+05 2.98549E+05
 -1        77 2.56214E+07-5.30890E+05-3.05377E+05-9.24823E+05 1.14191E+06-1.10525E+06
 -1        78 1.22601E+07-3.21014E+06-3.08801E+06-4.91309E+05 3.86948E+06-4.49237E+05
 -1        79-5.03378E+05-9.52531E+05 5.85291E+06 1.18057E+06-3.14093E+06 1.37778E+06
 -1        80-1.34273E+04 3.29207E+05-5.48509E+04-2.74067E+04-8.34564E+06 5.24454E+06
 -1        81 6.07566E+05 1.29205E+04-6.37378E+06-1.36078E+06-2.20918E+06 1.51584E+06
 -1        82-1.66374E+07-7.13035E+06-7.13035E+06 1.09202E+06 3.25422E+00 2.16300E+04
 -1        83-1.66058E+06-7.11662E+05-7.11664E+05 4.78956E+05 2.18244E-02 3.83478E+06
 -1        84 1.45014E+07 6.21494E+06 6.21495E+06-1.34204E+06 2.43504E+00 1.02554E+06
 -1        85 1.24399E+06 1.84646E+06-5.01960E+06 1.78640E+06-3.22485E+06-1.08332E+06
 -1        86 3.05972E+05-8.87541E+05 1.57342E+06 3.50083E+05-9.69155E+06-4.70981E+06
 -1        87-1.35039E+06-1.79309E+06 4.69594E+06-1.41754E+06-3.57378E+06-7.14476E+05
 -1        88 1.85623E+07 6.33872E+06 7.47033E+06 6.88400E+05 5.73347E+05-1.01089E+06
 -1        89 3.20747E+05 1.37457E+05 1.37456E+05 2.30092E+05-3.14095E+00-4.10684E+06
 -1        90-1.73402E+07-5.68709E+06-6.90821E+06-9.92098E+05 3.40748E+05-9.11683E+05
 -1        91-1.58953E+07-1.33805E+06-1.95052E+06 1.98099E+06 4.74683E+05 4.01250E+05
 -1        92-1.99513E+07 1.18538E+06 1.13685E+06 3.37871E+06 3.93070E+05 1.36171E+05
 -1        93-8.91369E+06-4.21245E+05-2.89770E+05 3.73557E+06 2.34938E+05 1.83982E+05
 -1        94-6.44543E+05 5.15111E+05 1.29246E+06 4.61096E+06 7.40910E+05-3.09396E+05
 -1        95 1.87290E+07 6.50261E+05-1.74491E+05 1.86726E+06 7.54913E+03-3.33331E+05
 -1        96 1.81731E+07-1.25298E+06 4.23158E+05 3.74058E+06 1.36638E+04 7.24159E+05
 -1        97 1.68343E+07-2.11897E+06-5.35493E+05 4.51510E+06 1.56046E+06 8.93857E+05
 -1        98 1.13359E+07-5.34576E+06-1.68694E+06 3.17040E+06-2.12820E+06-4.57281E+05
 -1        99-1.01236E+07 7.39098E+06 1.83067E+06 3.21640E+06-3.40912E+05-1.26529E+05
 -1       100-1.08316E+06-1.36127E+06 7.93380E+05 8.16440E+06-3.52953E+06-8.25546E+05
 -1       101-4.16905E+06 6.73101E+06 8.05809E+04 7.07415E+06-2.95899E+06 3.94769E+05
 -1       102-1.56812E+07 3.19833E+06-9.67673E+04 4.19002E+06 6.86876E+05-5.88780E+05
 -1       103-1.73006E+07 1.82921E+06-6.60468E+05 3.77364E+06-5.99477E+05-1.37979E+05
 -1       104 8.71286E+06-1.17312E+06 2.38593E+05 5.68928E+06 3.03452E+05 1.32051E+05
 -1       105 5.88508E+06-6.72312E+06-8.36193E+05 6.40263E+06-1.57541E+06-9.38429E+05
 -1       106-8.17822E+06 2.45627E+06 2.70941E+05 6.28661E+06-2.53841E+05-5.88530E+05
 -1       107 8.30065E+05 3.17320E+05-1.65423E+05 7.63806E+06-1.48603E+05 6.34085E+05
 -1       108 4.96967E+05-2.83652E+05 1.65592E+05 6.45925E+06 2.79462E+05-1.94104E+05
 -1       109 1.69949E+07 1.26695E+06 1.63757E+06-2.31746E+06 7.52888E+05 3.15989E+05
 -1       110 7.81440E+06 1.36172E+05-3.73812E+05-3.55840E+06 7.45953E+05 1.82448E+05
 -1       111 1.91622E+06 1.02685E+05-7.62080E+05-3.99636E+06 8.01249E+05 3.23425E+05
 -1       112-1.61087E+07 2.24476E+05 8.64281E+05-2.23684E+06-2.22155E+05 4.00756E+05
 -1       113-1.66962E+07 2.35473E+06 1.15278E+06-3.60152E+06 2.15234E+06 3.21843E+05
 -1       114-1.96363E+07 1.39028E+06 7.51458E+05-3.27648E+06 9.00665E+05 4.80838E+05
 -1       115-1.07004E+07 6.52150E+06 9.69501E+05-2.77026E+06-1.41989E+06-4.25906E+05
 -1       116 9.89125E+06-7.64144E+06-6.29556E+05-2.99863E+06-7.30730E+05-8.77844E+03
 -1       117 4.79314E+06-6.16445E+06 1.11363E+06-6.81946E+06-1.72198E+06 2.63690E+05
 -1       118 2.17545E+06-8.03809E+04 2.35831E+04-7.79213E+06-2.52570E+06-4.06286E+05
 -1       119 1.62282E+07-5.12614E+06-1.70025E+06-3.03056E+06 1.24047E+06 6.05902E+05
 -1       120 1.77933E+07-3.05457E+06 3.35626E+05-4.11477E+06-6.05372E+05 2.80968E+05
 -1       121 1.83898E+07-1.20966E+06-3.68577E+05-3.05726E+06 2.31917E+05-1.74469E+05
 -1       122-9.00370E+06 8.21482E+05 7.05312E+05-4.31199E+06 3.81965E+05 6.90564E+05
 -1       123-5.46448E+06 6.17929E+06 4.19219E+05-6.99217E+06-2.52086E+06-2.74200E+05
 -1       124 9.27374E+06-1.62921E+06-3.88672E+05-6.65816E+06 7.52183E+05-3.89336E+05
 -1       125-1.38607E+06 9.71273E+04 3.07031E+05-5.75092E+06 8.26189E+05-7.02139E+04
 -1       126-1.26841E+06 1.35663E+06 1.67359E+05-8.58450E+06 1.20191E+06 6.14176E+05
 -1       127-1.90738E+07-1.83388E+05-8.04636E+05 2.12458E+05-1.51692E+05 1.47972E+06
 -1       128-1.84416E+07-8.88989E+04 1.05551E+06-7.32156E+05-2.89080E+05 3.25756E+06
 -1       129-1.69791E+07 8.66192E+05 1.95797E+06-6.06613E+05 1.15074E+06 3.68802E+06
 -1       130-1.04520E+07 1.35579E+06 7.03063E+06 2.10528E+05-5.88480E+05 3.03560E+06
 -1       131 1.43327E+05-5.69039E+05-4.79086E+05-2.04658E+05-3.39332E+06 7.56169E+06
 -1       132 3.77083E+06 1.43581E+06-5.03208E+06-7.05751E+05-2.58214E+06 6.76614E+06
 -1       133 9.77176E+06-1.27815E+06-8.14639E+06 3.86416E+05 1.59382E+05 3.28317E+06
 -1       134 1.67705E+07-7.45414E+05-3.90309E+05 4.40272E+05-8.86965E+04 2.10664E+06
 -1       135 1.66352E+07-1.47479E+06-2.35659E+06 4.32599E+05 2.56559E+06 3.35979E+06
 -1       136 1.92670E+07-1.11904E+06-2.12789E+06 5.07341E+05 1.10229E+06 3.10753E+06
 -1       137 9.05657E+06 3.21419E+05 5.37517E+05 4.79534E+05 4.41655E+05 4.29439E+06
 -1       138-1.22923E+06-1.76473E+06-1.06812E+06 7.15623E+05 5.72072E+05 5.24408E+06
 -1       139-6.01853E+06-1.18620E+05 6.81340E+06 3.72009E+05-2.20852E+06 6.86529E+06
 -1       140 1.34820E+07-2.46299E+06-6.28871E+06 3.42598E+05 1.11431E+06 4.74384E+06
 -1       141-1.05482E+07-1.13239E+06 6.45799E+05 3.96518E+05 3.07345E+05 4.79468E+06
 -1       142-1.45803E+06 4.15281E+04 9.57778E+05 2.95734E+05 3.45561E+05 6.32736E+06
 -1       143 7.13096E+06 5.59582E+05-1.42794E+06 1.27852E+04 6.52462E+05 8.82592E+06
 -1       144-2.44125E+06 1.22061E+03 6.31220E+05-5.62083E+05 8.84154E+05 9.49010E+06
 -1       145 1.80394E+07 4.46293E+05 6.20535E+05-1.37908E+04 3.51158E+05-1.81652E+06
 -1       146 2.14739E+07 1.39520E+05-8.01659E+05-4.78485E+05 1.46189E+05-2.01880E+06
 -1       147 1.96868E+07 3.55808E+05-1.85610E+06-4.29404E+04 2.19609E+06-3.40917E+06
 -1       148 1.07953E+07 4.12546E+05-6.87684E+06 8.14579E+05-1.86833E+06-2.17347E+06
 -1       149-2.39859E+05-2.20376E+05 2.71136E+06-2.67606E+04-4.41592E+06-6.59300E+06
 -1       150 2.89958E+06 1.69697E+05-3.13339E+06 6.22339E+04-3.66143E+06-6.65716E+06
 -1       151-1.00770E+07 1.69563E+06 7.71571E+06-3.67365E+05-1.48751E+06-2.57247E+06
 -1       152-1.73144E+07-5.21797E+05-5.96327E+05 9.87374E+04 9.73718E+04-2.27339E+06
 -1       153-1.89979E+07 1.55040E+05 1.29470E+06 3.49106E+05 1.11178E+06-2.90694E+06
 -1       154-1.57923E+07 8.22509E+05 1.93012E+06 2.77154E+05 2.86301E+06-4.46966E+06
 -1       155-7.93242E+06-8.09532E+05-1.44686E+05-7.08717E+04 5.13574E+05-4.94313E+06
 -1       156 1.15890E+06 1.08882E+06 5.47073E+05 2.78715E+05 3.42741E+05-4.67613E+06
 -1       157 1.20316E+07-3.78997E+05-3.88424E+06-1.18620E+04 1.97396E+05-6.11899E+06
 -1       158-9.87508E+06 1.70518E+06 4.73326E+06 4.26493E+05 8.41222E+05-6.54309E+06
 -1       159 1.14444E+07 5.96999E+05-2.81128E+05 2.96343E+05 1.71196E+05-4.17243E+06
 -1       160 4.71812E+06-1.10830E+05-6.96976E+05-1.96959E+05 6.24397E+05-5.07949E+06
 -1       161 7.66175E+06 3.59394E+05-3.11791E+06 4.77203E+05-1.38718E+05-7.83706E+06
 -1       162-3.64440E+06 8.36217E+05 2.27953E+06-6.70310E+05 1.19073E+06-8.31544E+06
 -1       163 1.25270E+05-3.06362E+06-2.38182E+06-3.02779E+05-8.20308E+06-9.66108E+05
 -1       164 3.08929E+05-6.61939E+05-4.06368E+06 1.55716E+06-1.96780E+07-5.73948E+05
 -1       165-3.55968E+05 6.77508E+05 2.10372E+06-2.49647E+05-2.15021E+07-7.91219E+05
 -1       166-3.71226E+05 1.82048E+06 2.38916E+06 1.49686E+05-8.86533E+06-3.40694E+05
 -1       167-2.84941E+05 1.85960E+06 2.28577E+04 8.98488E+05-1.92199E+07-1.91394E+05
 -1       168 3.53152E+05-3.84882E+03 7.62010E+05 1.98360E+06-2.03794E+07 2.10290E+05
 -1       169 4.28094E+05-2.86573E+06-3.45470E+06 3.43858E+05-8.66250E+06-1.68726E+05
 -1       170 6.88589E+05 2.87319E+06 2.40156E+06-1.06078E+06-9.02208E+06 6.77034E+05
 -1       171-9.48241E+05-7.21526E+05-2.19539E+06 6.32690E+04-2.04882E+07 6.65855E+04
 -1       172-1.01387E+06 2.62561E+04 2.70635E+06 1.04711E+05-2.05909E+07 1.37580E+06
 -1       173-3.48065E+05 4.77060E+05 5.90596E+05-7.96140E+05-2.45621E+07-3.74411E+05
 -1       174-2.04096E+06 4.55167E+05 3.20277E+05-1.58874E+06-2.16942E+07 4.28391E+05
 -1       175-1.13564E+06-3.19534E+06-1.32591E+06 1.40945E+05-2.03440E+07 9.31783E+05
 -1       176-8.26928E+05 4.49979E+05 1.93233E+06-3.72974E+05-2.11872E+07-4.39863E+05
 -1       177 2.18698E+05-6.11151E+05-1.64201E+04-4.84649E+05-3.45579E+07-4.84420E+05
 -1       178 6.80749E+05-1.12786E+06 1.18861E+05 1.04679E+06-2.24072E+07-1.14325E+06
 -1       179 3.53203E+05-1.64489E+06 5.27262E+05-4.27391E+05-3.36999E+07 7.18932E+05
 -1       180 9.07205E+05-1.79994E+05-1.24441E+06 1.03026E+05-3.56822E+07-2.74522E+05
 -1       181 1.23587E+07 5.29659E+06 5.29659E+06-1.59361E+06-4.43480E+00-4.96224E+05
 -1       182-2.61675E+05-1.12155E+05-1.12154E+05 3.62430E+05-4.50229E+00-3.00508E+06
 -1       183 7.08778E+06 2.62265E+06 1.97981E+06-4.75512E+03 3.40634E+05-2.78711E+06
 -1       184-1.18498E+07-5.07850E+06-5.07850E+06 1.77727E+06-2.74656E+00-9.15266E+04
 -1       185-5.08905E+06-2.18104E+06-2.18104E+06 3.37729E+06-1.28641E+00-4.09552E+05
 -1       186 1.98322E+06 1.69140E+05 3.08235E+05 3.26124E+06 3.41194E+05-6.04422E+05
 -1       187 1.20631E+07 5.05928E+06 4.60287E+06 7.38849E+05-1.69147E+05 1.25717E+06
 -1       188-1.16996E+07-4.47260E+06-4.59095E+06-1.46593E+06-2.65750E+05 7.71102E+05
 -1       189-5.21064E+06-1.08141E+06-1.03283E+06-4.45465E+04 7.10721E+05 2.90848E+06
 -1       190 2.69526E+06 1.15512E+06 1.15513E+06 5.70350E+05-3.48367E+00 2.83807E+06
 -1       191-4.61555E+06-1.63696E+06-1.92817E+06-2.24419E+06 3.61568E+05 8.53213E+05
 -1       192 5.06160E+06 2.16927E+06 2.16927E+06-2.85980E+06-4.60119E+00-2.63982E+05
 -1       193-8.20742E+06-3.38243E+06-2.81487E+06 7.67670E+05 1.17788E+05-2.50535E+06
 -1       194 4.95986E+06 1.94754E+06 2.08501E+06 1.92513E+06 1.20697E+05 9.00873E+05
 -1       195-1.01670E+06-4.35724E+05-4.35720E+05-3.23133E+06-5.46295E+00-3.91941E+05
 -1       196-6.81361E+05-5.13966E+05 1.08668E+05-8.04526E+05 1.91290E+05-2.39419E+05
 -1       197 2.69267E+05-1.18629E+04 8.53669E+04 8.32710E+05 1.89554E+05-1.43358E+06
 -1       198-2.12788E+06-9.11950E+05-9.11952E+05 1.03312E+06-1.08037E+01 1.35718E+04
 -1       199-1.14102E+07 1.22289E+06 7.12161E+05 1.74611E+06-3.95560E+06-2.89559E+05
 -1       200-4.99449E+05 3.14144E+06-9.31256E+05 1.96816E+06-1.06849E+07 4.06187E+05
 -1       201-3.63380E+06 3.37507E+06 1.24518E+06 4.89935E+06-5.08713E+06-2.73439E+04
 -1       202-1.13824E+06 6.12069E+05 2.43412E+06-2.78167E+05-1.23691E+07-9.47338E+05
 -1       203-2.86556E+05-9.34641E+03 4.06702E+05 9.46790E+05-2.30410E+07-1.67759E+05
 -1       204 3.65529E+06-1.91248E+06-1.14204E+06-2.39762E+06-1.37789E+07 3.32062E+05
 -1       205 5.79448E+06-2.05872E+06-3.07493E+06-1.76309E+06-3.79021E+06-1.12617E+06
 -1       206-2.08441E+06 3.46681E+05 3.87065E+06 7.55020E+05-9.28073E+06 2.38380E+06
 -1       207-2.43299E+06 2.91120E+06 9.05442E+05-1.91690E+06-1.07915E+07-1.60945E+05
 -1       208-7.19007E+05 1.35918E+06 1.92265E+06 9.24558E+05-2.25872E+07 4.73233E+05
 -1       209 6.47605E+04 7.53399E+05 7.97386E+05 1.70829E+06-4.33082E+06-1.84573E+05
 -1       210-2.01415E+06 5.34277E+05-9.39195E+03 1.02220E+05-1.22707E+07 7.08118E+04
 -1       211 4.14100E+06-9.43671E+05-1.20847E+06 9.12312E+05-4.02958E+06 1.71546E+06
 -1       212 3.37203E+05 1.27327E+06 5.71574E+05-3.16698E+05-4.14585E+06 1.28305E+06
 -1       213 4.80883E+06-7.49479E+04-1.39164E+06 2.28528E+05 1.22788E+06 2.20058E+06
 -1       214 1.29770E+06 1.65337E+04-1.33895E+06-3.95929E+05-3.34855E+06 4.10160E+06
 -1       215-6.15794E+04-3.19979E+05-2.51503E+05 6.28074E+04-1.00868E+06-8.57034E+05
 -1       216-4.27120E+06 1.53884E+05 3.89626E+05 2.00258E+05 1.14033E+06-2.16986E+06
 -1       217 3.18883E+05-5.46818E+04-2.08635E+05-2.04432E+05-9.01220E+06-5.33868E+05
 -1       218-5.43006E+06 4.22416E+05 7.01565E+05 8.66036E+05-4.03101E+06-2.13239E+06
 -1       219-1.89013E+06 1.99977E+04 1.15171E+05-2.90495E+05-1.12201E+06-3.40132E+06
 -1       220 3.49310E+04-3.89638E+05-4.18062E+05-1.31517E+06-8.19132E+06-1.98389E+05
 -1       221-2.67238E+06 2.46205E+05 8.03774E+05-3.73432E+05-2.76712E+05 2.67701E+06
 -1       222-6.98508E+06 4.62300E+05 1.39175E+06-5.38069E+05-3.72371E+06 3.75899E+06
 -1       223-1.38742E+07-9.51000E+04-1.45788E+06-1.84690E+06 8.54740E+05 1.21924E+06
 -1       224-1.19886E+07 9.67655E+05 5.60417E+05-2.68980E+06 4.95827E+05 2.21767E+06
 -1       225-6.68022E+06 1.81112E+06 1.06460E+06-3.15255E+06-3.71368E+06 9.89443E+05
 -1       226-1.26153E+07 1.98489E+06 1.87803E+06-5.91187E+05-2.56729E+06 1.02693E+06
 -1       227 1.38373E+07-8.77320E+05-7.62959E+05-2.67176E+06 8.32059E+05-1.71542E+06
 -1       228-4.42907E+06 1.03242E+06 1.58711E+05-2.40640E+06 5.54271E+05-5.57371E+03
 -1       229-2.17017E+06 6.05192E+05 9.77132E+05-3.81321E+06-1.63363E+06 8.94594E+04
 -1       230 5.59579E+06-1.44929E+06 7.26932E+04-3.45697E+06-2.54296E+06-3.38068E+04
 -1       231 5.71853E+06-1.38807E+06-6.06641E+04-2.42611E+06-6.64388E+05-7.84421E+05
 -1       232-2.53857E+05 2.30404E+05-1.07084E+06-4.84041E+05-5.80637E+06 4.74561E+06
 -1       233 1.41762E+07-1.91011E+06-6.12355E+05-3.21679E+06 2.16862E+05-1.28072E+06
 -1       234 7.21405E+06-2.08371E+06-1.78127E+06-2.03654E+06-1.60552E+06-3.24022E+06
 -1       235 8.36201E+06-6.56946E+05-5.44266E+05-2.79891E+05-1.17241E+06-2.76053E+06
 -1       236 2.32004E+06-2.04164E+05-6.28100E+05-4.90755E+05-3.39169E+06-4.26244E+06
 -1       237-7.95731E+05 1.28426E+06 3.55741E+05 3.40504E+05-2.21720E+07 2.69335E+05
 -1       238 1.39014E+06-1.07620E+06-4.22570E+05-3.74167E+06-4.94660E+06 1.38432E+05
 -1       239 6.58702E+06-8.08934E+05-7.72053E+05-1.22536E+06 1.10174E+06-2.96422E+06
 -1       240-8.25089E+05 5.88140E+05 6.92731E+05-6.87577E+04 1.18760E+06-2.91387E+06
 -1       241 4.22630E+06-1.88563E+06-2.37995E+06 4.72716E+05-6.31781E+06 1.90096E+06
 -1       242 1.55295E+06 2.92426E+05-7.84466E+05-5.69615E+05-1.61005E+07 2.66979E+06
 -1       243 2.05708E+06-9.74968E+05-1.59524E+06-3.07927E+05-8.80816E+06 2.52407E+06
 -1       244 2.38641E+05-2.60909E+06 9.90235E+04 2.60736E+06-1.06839E+07-5.66427E+05
 -1       245-3.15390E+05-1.97902E+06-7.18455E+05 1.85055E+05-2.31907E+07 6.06166E+05
 -1       246-7.43092E+06 9.99948E+03-1.99232E+05 3.18645E+06 8.24150E+05-3.94855E+05
 -1       247-4.00721E+06 8.55620E+05 3.26675E+05 2.74920E+06 1.17588E+06-3.53044E+05
 -1       248-1.47477E+06-3.18598E+05-6.40396E+05 1.39315E+06 1.53374E+06-4.20713E+05
 -1       249 3.39336E+06 2.63423E+05 5.29854E+05 2.51162E+06 1.23071E+06 3.66143E+05
 -1       250-1.33188E+07-1.16482E+06-1.32846E+06 1.58661E+06 5.70584E+05-1.32203E+06
 -1       251-4.11386E+04 5.63152E+05 1.42545E+06 3.21198E+05-2.36594E+07 1.76102E+05
 -1       252 1.05127E+06-9.55748E+05 3.81329E+04-3.48908E+05-1.74229E+07-4.37653E+05
 -1       253 4.53832E+06-2.20216E+05-5.89424E+05-2.15037E+05 1.05545E+06-2.43866E+06
 -1       254 2.69231E+06 2.78744E+04-4.78085E+05-1.83803E+06 1.72355E+06-6.12857E+05
 -1       255 1.19759E+07-2.21029E+05-4.45434E+05 2.46687E+06 1.30032E+06 2.38054E+06
 -1       256-1.03995E+07 8.96213E+05 2.85888E+05 2.25364E+06 3.83477E+05-2.21746E+06
 -1       257 1.43193E+05-4.32520E+05-6.38293E+05 4.14361E+05 1.88454E+06 4.65515E+05
 -1       258 7.35639E+05 2.48111E+05 5.08335E+05-3.17900E+05 1.76451E+06-7.86150E+05
 -1       259-6.51476E+06-2.32583E+05-3.23826E+05 1.01437E+06 1.24837E+06-2.95432E+06
 -1       260 1.19453E+07 1.00526E+06 7.86054E+04 2.00223E+06 1.03049E+06 1.95139E+06
 -1       261 3.80221E+06-1.09354E+06-4.50978E+05 2.75454E+06 3.65834E+05 2.80283E+05
 -1       262-1.22267E+07 5.71040E+05 7.86913E+05 2.30270E+06 1.22310E+06-2.24822E+06
 -1       263-4.49555E+05 6.20011E+05 3.61300E+05 8.94355E+04-7.13584E+06-3.48733E+06
 -1       264 1.47123E+06-6.21081E+05-1.72129E+06 7.82782E+04-1.42917E+07-2.92283E+06
 -1       265-5.49310E+06 1.17782E+06 3.47936E+05-2.29112E+06 1.32364E+06 1.01214E+06
 -1       266 2.04155E+06-5.71493E+05-4.37013E+05-1.64254E+06 1.79205E+06 6.18277E+05
 -1       267-3.15348E+06 9.79550E+05 1.24210E+06-6.53344E+05 8.08975E+05 3.64445E+06
 -1       268 3.95414E+06 2.31638E+05-4.85581E+05 3.79364E+05 1.39421E+06 3.24400E+06
 -1       269 1.02708E+07-1.51604E+06-5.43951E+05 1.97675E+06-4.06748E+06 2.94951E+05
 -1       270 6.69423E+06 6.13628E+05 4.82599E+05-2.26231E+06 1.33463E+06-5.58876E+05
 -1       271-2.70051E+06 1.64012E+06-1.20818E+05 2.98476E+06-4.81769E+05 1.06805E+05
 -1       272 1.29771E+07 1.51275E+06 1.42113E+06-1.36747E+06 8.30601E+05-1.21700E+06
 -1       273 3.48546E+06-1.24315E+06-2.63284E+04 4.16729E+06-4.13572E+06 1.91872E+05
 -3
    1PSTEP                        21           1           1          
    1PGM                1.000000E+00                                  
    1PGK                1.245566E+12                                  
    1PHID                         -1                                  
    1PSUBC                         0                                  
    1PMODE                         7                                  
  100CL  107 1.77625E+05         273                     2    7MODAL      1
 -4  TOSTRAIN    6    1
 -5  EXX         1    4    1    1
 -5  EYY         1    4    2    2
 -5  EZZ         1    4    3    3
 -5  EXY         1    4    1    2
 -5  EYZ         1    4    2    3
 -5  EZX         1    4    3    1
 -1         1-1.77158E+01 9.05676E+00 1.16127E+01 3.87210E+00 1.14363E+01-3.76854E+00
 -1         2 1.71947E+01-1.20416E+01-8.55332E+00-3.00950E+00 9.89025E+00-5.18143E+00
 -1         3 2.06232E+01-1.36872E+01-1.02156E+01 2.09056E+00 1.26641E+01 4.26098E+00
 -1         4-1.87052E+01 1.20559E+01 8.32940E+00-1.17500E+00 1.00175E+01 5.32245E+00
 -1         5-7.24115E+01-1.56766E-04-1.52830E-04 6.56258E+00 2.11524E-05-1.37298E+01
 -1         6 7.25790E+01 1.54207E-04 1.70036E-04-1.18036E+01 1.58277E-05-8.76601E+00
 -1         7 9.14098E+01-1.59810E+01-8.12681E+00 1.04387E+00 4.87823E+00 5.74143E+00
 -1         8-8.05564E+01 9.04736E+00-1.33729E-04-5.57834E-01 1.09810E+00 6.53784E+00
 -1         9-2.86211E+01-6.40582E-05-6.87375E-05 2.55243E+01-8.36169E-06 3.84409E+00
 -1        10 4.28737E+01-6.00566E+00-5.43714E+00 2.44066E+01 1.65470E+00-2.90612E+00
 -1        11 1.34058E+02-4.57023E+01-4.66254E+01 7.41561E+00 7.48099E-01 5.95727E+00
 -1        12 1.20817E+02-4.48354E+01-4.68090E+01 1.64521E+01 2.48410E+01 1.16122E+01
 -1        13-1.10988E+01 3.31239E+01-1.45998E+01 1.87763E+01-4.91458E+01 6.31666E+00
 -1        14 1.66247E+01-3.07543E+01 6.42357E+00 2.22033E+01-6.13163E+01-1.28053E+01
 -1        15-1.31691E+02 4.19541E+01 4.22728E+01 1.00552E+01 1.26660E+00-3.37748E+00
 -1        16-1.17004E+02 4.41661E+01 4.49828E+01 1.34054E+01 2.77306E+01-1.41468E+01
 -1        17 2.70902E+01 5.73838E-05 7.55347E-05-2.49119E+01-2.65492E-05 6.23592E+00
 -1        18-2.53233E+01 1.42713E+00 2.31666E+00-2.60377E+01-1.06715E+00 2.14670E+00
 -1        19-1.30514E+02 4.33497E+01 4.40563E+01-6.38102E+00 8.75368E-02 5.82808E+00
 -1        20-1.18716E+02 4.46068E+01 4.34032E+01-8.64530E+00 2.68551E+01 8.71826E+00
 -1        21 9.18068E+00-4.21053E+01 1.87267E+01-2.89902E+01-4.88910E+01 5.73319E+00
 -1        22-1.50401E+01 2.95804E+01-6.12066E+00-2.95347E+01-6.31109E+01-6.18831E+00
 -1        23 1.27360E+02-4.03439E+01-3.71824E+01-7.19693E+00-1.37114E+00-2.41240E+00
 -1        24 1.19272E+02-4.10660E+01-4.82211E+01-5.11265E+00 2.44433E+01-9.25902E+00
 -1        25-1.32834E+01-1.14635E+01 3.61150E+01 5.46664E+00-4.82738E+01 2.87062E+01
 -1        26 1.24699E+01 1.54552E+01-4.08728E+01-4.89684E+00-4.19888E+01 2.42665E+01
 -1        27-5.33553E+01 6.43880E+00 6.45453E+00 6.09508E+00 1.99573E+00 1.93346E+01
 -1        28 3.24302E+01-2.22907E+00 2.11501E-01-1.47313E+00-1.08364E+00 2.21877E+01
 -1        29 1.47995E+01 1.53002E+01-3.81511E+01 1.30081E+01-5.56035E+01-2.16648E+01
 -1        30-1.29927E+01-9.59078E+00 3.30536E+01-7.65049E+00-6.34822E+01-1.63653E+01
 -1        31 4.72158E+01-4.72645E-01-4.82580E+00 6.84202E+00 1.21600E+00-2.19808E+01
 -1        32-4.06587E+01 2.08900E+00 3.95647E+00-4.57325E+00-4.20008E-02-2.50571E+01
 -1        33-6.00197E+01 2.25699E+01 1.99745E+01 3.06961E+01 6.57095E+00 4.10722E-01
 -1        34 4.86849E+01-2.54696E+01-9.56213E+00 4.12598E+01 4.74468E+00 4.17637E+00
 -1        35-4.18845E+01 3.05115E+01 5.37826E+00 4.73976E+01-4.79372E+00 4.49122E-01
 -1        36 5.13200E+01-1.78832E+01-1.68967E+01-2.69135E+01 1.02654E+01-9.36807E-01
 -1        37-5.98404E+01 2.75625E+01 1.70089E+01-3.81911E+01 8.52410E+00 2.19371E+00
 -1        38 5.15158E+01-3.33255E+01-8.81334E+00-4.56398E+01 4.00544E+00 4.57087E+00
 -1        39-5.24706E+01 1.12143E+01 2.53384E+01-3.77995E+00 7.26785E-01 3.97494E+01
 -1        40 3.04921E+01-1.16575E+00-2.74106E+01-8.06199E+00-7.70110E+00 5.32024E+01
 -1        41 5.12251E+01-1.34254E+01-2.27474E+01 1.43853E+00 1.33029E+01 3.46346E+01
 -1        42 7.62294E+01-2.16464E+01-2.94002E+01-3.24082E+00 4.60875E+00-2.88323E+01
 -1        43 1.10045E+01-4.75646E-01-8.11163E+00-1.13584E+00-5.81961E+00-5.81382E+01
 -1        44-4.40600E+01 1.15737E+01 1.79518E+01-1.11389E+00 1.10304E+01-3.37900E+01
 -1        45 1.51456E+00 2.83640E-01-3.37658E+00 5.97753E+00-2.07495E+02 4.14319E+00
 -1        46-1.54792E-01-2.13973E+00 3.60287E+00 1.27445E+00-2.06618E+02-3.01799E-01
 -1        47-1.23216E+00-4.33085E+00 5.35883E+00 8.63020E-01-2.19299E+02-3.97514E+00
 -1        48 1.30581E+01-2.03189E+00-4.73749E-01-5.71408E+00 4.52779E+00-9.48604E+00
 -1        49-1.42977E+01 6.13973E-01-4.31709E-01 1.42623E+01 2.42861E+00-7.15654E+00
 -1        50-1.87265E+00 8.45901E-01-7.04563E-01 3.51152E-01 7.67876E+00 9.97645E+00
 -1        51-1.90385E+01 9.80572E+00 6.78565E+00-1.49571E+00-6.83003E+01 6.78373E+00
 -1        52-6.37489E+00 2.31769E+00 2.67128E+00 8.93592E+00-8.08466E+01-1.51050E-01
 -1        53 1.28453E+01-8.84363E+00-2.01052E+00-5.08011E+00-2.92710E+01-7.04580E+00
 -1        54 6.09154E-03 1.94373E+00-1.52797E+00 3.04597E+00 8.15330E+00-6.97992E-01
 -1        55-5.37323E+01-9.29950E-05-6.95206E-05 1.51241E+01-1.42098E-05 5.91123E+00
 -1        56 1.85578E+00-3.51214E-05-6.79544E-05 2.94641E+01-2.51362E-06-3.03563E-01
 -1        57 6.00981E+01 1.54207E-04 1.70036E-04 3.05302E+00 1.58277E-05-8.98616E+00
 -1        58 1.05419E+02-2.81628E+01-3.10538E+01-8.32800E-01-2.89062E+00 2.01337E-01
 -1        59 1.37563E+02-4.19450E+01-4.54283E+01 1.00579E+01 7.62404E-01 5.90776E+00
 -1        60 6.52878E+01-3.09752E+01-2.80231E+01 6.50457E+00 2.51367E+01 5.72969E+00
 -1        61-1.05471E+01 2.85884E+01-1.20715E+01 8.62295E+00-2.15012E+01 7.85490E+00
 -1        62-1.04503E-01-8.61987E+00 4.52691E-02 2.26355E+01-5.71334E+01 1.02703E+00
 -1        63 9.88553E+00-2.44786E+01 1.50737E+01 5.47775E+00-2.67623E+01-1.27922E+01
 -1        64-1.06385E+02 3.54813E+01 2.49763E+01 2.35651E+00-4.89207E-01-2.12258E+00
 -1        65-1.35370E+02 4.31005E+01 4.41215E+01 9.21139E+00 4.72266E+00-7.22727E+00
 -1        66-6.65615E+01 3.48280E+01 2.81715E+01 7.28384E+00 3.02814E+01-5.40317E+00
 -1        67 5.67753E+01 7.59121E-05 9.96382E-05-1.62365E+01-1.98323E-05 7.78304E+00
 -1        68 4.51370E+00 2.22051E-05 6.25308E-05-2.73269E+01-2.19953E-05 5.40419E+00
 -1        69-5.09983E+01-1.56766E-04-1.52830E-04-8.93455E+00 2.11524E-05-8.96443E+00
 -1        70-1.04564E+02 2.86301E+01 2.79114E+01-1.10469E+00-3.86307E+00-2.76786E+00
 -1        71-1.30877E+02 4.17027E+01 4.00488E+01-7.94781E+00 2.62331E+00 6.26082E+00
 -1        72-6.86373E+01 2.95420E+01 3.09962E+01-3.22889E+00 2.87613E+01 4.02195E+00
 -1        73 1.02529E+01-3.59209E+01 1.29567E+01-1.35271E+01-1.68769E+01 7.50705E+00
 -1        74-1.93543E+00 6.69250E+00-3.41587E+00-3.80052E+01-5.98636E+01 7.00912E+00
 -1        75-9.41958E+00 2.76615E+01-1.33439E+01-8.32493E+00-2.47648E+01-9.22319E+00
 -1        76 1.05596E+02-3.12126E+01-3.06008E+01-3.02444E+00 9.55703E-01 1.94057E+00
 -1        77 1.29361E+02-4.06285E+01-3.91627E+01-6.01135E+00 7.42244E+00-7.18413E+00
 -1        78 7.07476E+01-2.98088E+01-2.90150E+01-3.19351E+00 2.51516E+01-2.92004E+00
 -1        79-9.86746E+00-1.27870E+01 3.14484E+01 7.67371E+00-2.04161E+01 8.95560E+00
 -1        80-4.78670E-01 1.74845E+00-7.47924E-01-1.78144E-01-5.42466E+01 3.40895E+01
 -1        81 1.25791E+01 8.71393E+00-3.27996E+01-8.84505E+00-1.43597E+01 9.85296E+00
 -1        82-6.17958E+01-1.56766E-04-1.52830E-04 7.09812E+00 2.11524E-05 1.40595E-01
 -1        83-6.16790E+00 5.04600E-05 3.82395E-05 3.11322E+00 1.41859E-07 2.49261E+01
 -1        84 5.38623E+01 1.54207E-04 1.70036E-04-8.72324E+00 1.58277E-05 6.66600E+00
 -1        85 1.09797E+01 1.48957E+01-2.97337E+01 1.16116E+01-2.09615E+01-7.04155E+00
 -1        86 5.01037E-01-7.25680E+00 8.73947E+00 2.27554E+00-6.29951E+01-3.06138E+01
 -1        87-1.11062E+01-1.39838E+01 2.81949E+01-9.21399E+00-2.32296E+01-4.64409E+00
 -1        88 7.20978E+01-7.35529E+00 1.53396E-04 4.47460E+00 3.72676E+00-6.57077E+00
 -1        89 1.19136E+00-1.99136E-05-2.59226E-05 1.49560E+00-2.04162E-05-2.66945E+01
 -1        90-6.78078E+01 7.93708E+00-1.65832E-04-6.44864E+00 2.21486E+00-5.92594E+00
 -1        91-7.45435E+01 2.00784E+01 1.60974E+01 1.28764E+01 3.08544E+00 2.60813E+00
 -1        92-1.03240E+02 3.41486E+01 3.38332E+01 2.19616E+01 2.55496E+00 8.85110E-01
 -1        93-4.35019E+01 1.16990E+01 1.25535E+01 2.42812E+01 1.52710E+00 1.19588E+00
 -1        94-5.93407E+00 1.60369E+00 6.65642E+00 2.99713E+01 4.81592E+00-2.01108E+00
 -1        95 9.29313E+01-2.45804E+01-2.99413E+01 1.21372E+01 4.90694E-02-2.16665E+00
 -1        96 9.21105E+01-3.41594E+01-2.32644E+01 2.43138E+01 8.88146E-02 4.70703E+00
 -1        97 8.81532E+01-3.50430E+01-2.47505E+01 2.93481E+01 1.01430E+01 5.81007E+00
 -1        98 6.72284E+01-4.12022E+01-1.74198E+01 2.06076E+01-1.38333E+01-2.97232E+00
 -1        99-6.44505E+01 4.93943E+01 1.32523E+01 2.09066E+01-2.21592E+00-8.22439E-01
 -1       100-4.56397E+00-6.37168E+00 7.63355E+00 5.30686E+01-2.29420E+01-5.36605E+00
 -1       101-3.10626E+01 3.97877E+01-3.44003E+00 4.59820E+01-1.92334E+01 2.56600E+00
 -1       102-8.30582E+01 3.96586E+01 1.82404E+01 2.72351E+01 4.46469E+00-3.82707E+00
 -1       103-8.82562E+01 3.60877E+01 1.99048E+01 2.45287E+01-3.89660E+00-8.96865E-01
 -1       104 4.49661E+01-1.92928E+01-1.01166E+01 3.69803E+01 1.97244E+00 8.58334E-01
 -1       105 4.07644E+01-4.11889E+01-2.92390E+00 4.16171E+01-1.02402E+01-6.09979E+00
 -1       106-4.49819E+01 2.41423E+01 9.93763E+00 4.08630E+01-1.64996E+00-3.82545E+00
 -1       107 3.92248E+00 5.89637E-01-2.54819E+00 4.96474E+01-9.65919E-01 4.12155E+00
 -1       108 2.66192E+00-2.41210E+00 5.07988E-01 4.19851E+01 1.81650E+00-1.26168E+00
 -1       109 8.06180E+01-2.16140E+01-1.92050E+01-1.50635E+01 4.89377E+00 2.05393E+00
 -1       110 3.94285E+01-1.04800E+01-1.37949E+01-2.31296E+01 4.84869E+00 1.18591E+00
 -1       111 1.05702E+01-1.21779E+00-6.83876E+00-2.59763E+01 5.20812E+00 2.10226E+00
 -1       112-8.21767E+01 2.39890E+01 2.81477E+01-1.45394E+01-1.44401E+00 2.60491E+00
 -1       113-8.87425E+01 3.50888E+01 2.72762E+01-2.34099E+01 1.39902E+01 2.09198E+00
 -1       114-1.01394E+02 3.52787E+01 3.11264E+01-2.12971E+01 5.85432E+00 3.12545E+00
 -1       115-6.47384E+01 4.72038E+01 1.11158E+01-1.80067E+01-9.22926E+00-2.76839E+00
 -1       116 6.18627E+01-5.20997E+01-6.52250E+00-1.94911E+01-4.74974E+00-5.70599E-02
 -1       117 3.15419E+01-3.96824E+01 7.62509E+00-4.43265E+01-1.11928E+01 1.71399E+00
 -1       118 1.09625E+01-3.70046E+00-3.02469E+00-5.06489E+01-1.64171E+01-2.64086E+00
 -1       119 9.13808E+01-4.74227E+01-2.51544E+01-1.96986E+01 8.06304E+00 3.93837E+00
 -1       120 9.30449E+01-4.24662E+01-2.04299E+01-2.67460E+01-3.93492E+00 1.82629E+00
 -1       121 9.43164E+01-3.30801E+01-2.76131E+01-1.98722E+01 1.50746E+00-1.13405E+00
 -1       122-4.73087E+01 1.65550E+01 1.57999E+01-2.80279E+01 2.48277E+00 4.48867E+00
 -1       123-3.72202E+01 3.84643E+01 1.02388E+00-4.54491E+01-1.63856E+01-1.78230E+00
 -1       124 4.93955E+01-2.14737E+01-1.34102E+01-4.32780E+01 4.88919E+00-2.53068E+00
 -1       125-7.53659E+00 2.10420E+00 3.46857E+00-3.73810E+01 5.37023E+00-4.56390E-01
 -1       126-8.62804E+00 8.43474E+00 7.04461E-01-5.57992E+01 7.81240E+00 3.99214E+00
 -1       127-9.38870E+01 2.89007E+01 2.48626E+01 1.38098E+00-9.85999E-01 9.61819E+00
 -1       128-9.36579E+01 2.56346E+01 3.30733E+01-4.75901E+00-1.87902E+00 2.11741E+01
 -1       129-8.91317E+01 2.68626E+01 3.39592E+01-3.94299E+00 7.47978E+00 2.39721E+01
 -1       130-6.48398E+01 1.19111E+01 4.87975E+01 1.36843E+00-3.82512E+00 1.97314E+01
 -1       131 2.28882E+00-2.34156E+00-1.75686E+00-1.33028E+00-2.20565E+01 4.91510E+01
 -1       132 2.42485E+01 9.07093E+00-3.29703E+01-4.58738E+00-1.67839E+01 4.39799E+01
 -1       133 6.29956E+01-8.82883E+00-5.34723E+01 2.51171E+00 1.03598E+00 2.13406E+01
 -1       134 8.55559E+01-2.82973E+01-2.59891E+01 2.86177E+00-5.76527E-01 1.36932E+01
 -1       135 8.89231E+01-2.87919E+01-3.45236E+01 2.81189E+00 1.66763E+01 2.18386E+01
 -1       136 1.01205E+02-3.13038E+01-3.78613E+01 3.29772E+00 7.16492E+00 2.01989E+01
 -1       137 4.39944E+01-1.27840E+01-1.13794E+01 3.11697E+00 2.87075E+00 2.79136E+01
 -1       138-1.89684E+00-5.37765E+00-8.49679E-01 4.65155E+00 3.71847E+00 3.40865E+01
 -1       139-4.01348E+01-1.78542E+00 4.32727E+01 2.41806E+00-1.43554E+01 4.46244E+01
 -1       140 8.05374E+01-2.31049E+01-4.79720E+01 2.22688E+00 7.24300E+00 3.08350E+01
 -1       141-5.20111E+01 9.19165E+00 2.07499E+01 2.57737E+00 1.99775E+00 3.11654E+01
 -1       142-8.78913E+00 9.58025E-01 6.91365E+00 1.92227E+00 2.24615E+00 4.11278E+01
 -1       143 3.69573E+01-5.75663E+00-1.86755E+01 8.31040E-02 4.24100E+00 5.73685E+01
 -1       144-1.31549E+01 2.72115E+00 6.81614E+00-3.65354E+00 5.74700E+00 6.16856E+01
 -1       145 8.85970E+01-2.57585E+01-2.46259E+01-8.96402E-02 2.28253E+00-1.18074E+01
 -1       146 1.08363E+02-3.03108E+01-3.64284E+01-3.11015E+00 9.50229E-01-1.31222E+01
 -1       147 1.00685E+02-2.49671E+01-3.93445E+01-2.79113E-01 1.42746E+01-2.21596E+01
 -1       148 6.36727E+01-3.81490E+00-5.11959E+01 5.29477E+00-1.21442E+01-1.41276E+01
 -1       149-4.93576E+00-4.80913E+00 1.42471E+01-1.73944E-01-2.87035E+01-4.28545E+01
 -1       150 1.89434E+01 1.19919E+00-2.02708E+01 4.04521E-01-2.37993E+01-4.32716E+01
 -1       151-6.45021E+01 1.20201E+01 5.11506E+01-2.38787E+00-9.66885E+00-1.67210E+01
 -1       152-8.48946E+01 2.42570E+01 2.37726E+01 6.41793E-01 6.32916E-01-1.47771E+01
 -1       153-9.71639E+01 2.73299E+01 3.47377E+01 2.26919E+00 7.22659E+00-1.88951E+01
 -1       154-8.30904E+01 2.49058E+01 3.21053E+01 1.80150E+00 1.86096E+01-2.90528E+01
 -1       155-3.82308E+01 8.06800E+00 1.23895E+01-4.60666E-01 3.33823E+00-3.21304E+01
 -1       156 3.34065E+00 2.88513E+00-6.36208E-01 1.81165E+00 2.22782E+00-3.03948E+01
 -1       157 6.65528E+01-1.41160E+01-3.69001E+01-7.71032E-02 1.28307E+00-3.97734E+01
 -1       158-5.90330E+01 1.62386E+01 3.59211E+01 2.77221E+00 5.46794E+00-4.25301E+01
 -1       159 5.67482E+01-1.37599E+01-1.94678E+01 1.92623E+00 1.11277E+00-2.71208E+01
 -1       160 2.48023E+01-6.58587E+00-1.03958E+01-1.28024E+00 4.05858E+00-3.30167E+01
 -1       161 4.24465E+01-5.01877E+00-2.76213E+01 3.10182E+00-9.01664E-01-5.09409E+01
 -1       162-2.28956E+01 6.22839E+00 1.56099E+01-4.35702E+00 7.73972E+00-5.40504E+01
 -1       163 8.79450E+00-1.19333E+01-7.50157E+00-1.96806E+00-5.33200E+01-6.27970E+00
 -1       164 8.63307E+00 2.32242E+00-1.97889E+01 1.01216E+01-1.27907E+02-3.73066E+00
 -1       165-5.95168E+00 7.65913E-01 1.00363E+01-1.62271E+00-1.39764E+02-5.14293E+00
 -1       166-8.17059E+00 6.07549E+00 9.77192E+00 9.72962E-01-5.76247E+01-2.21451E+00
 -1       167-4.24840E+00 9.69114E+00-2.24770E+00 5.84017E+00-1.24929E+02-1.24406E+00
 -1       168 6.28518E-01-1.69199E+00 3.28609E+00 1.28934E+01-1.32466E+02 1.36689E+00
 -1       169 1.16211E+01-9.78874E+00-1.36171E+01 2.23508E+00-5.63063E+01-1.09672E+00
 -1       170-4.46918E+00 9.73072E+00 6.66514E+00-6.89507E+00-5.86435E+01 4.40072E+00
 -1       171-3.65826E-01 1.10782E+00-8.47231E+00 4.11248E-01-1.33173E+02 4.32806E-01
 -1       172-9.16826E+00-2.40744E+00 1.50132E+01 6.80619E-01-1.33841E+02 8.94267E+00
 -1       173-3.34181E+00 2.02151E+00 2.75948E+00-5.17491E+00-1.59654E+02-2.43367E+00
 -1       174-1.13680E+01 4.85686E+00 3.98008E+00-1.03268E+01-1.41012E+02 2.78454E+00
 -1       175 1.10365E+00-1.22844E+01-1.33067E-01 9.16144E-01-1.32236E+02 6.05659E+00
 -1       176-7.70811E+00 5.91787E-01 1.02271E+01-2.42433E+00-1.37717E+02-2.85911E+00
 -1       177 2.03485E+00-3.35917E+00 5.06579E-01-3.15022E+00-2.24626E+02-3.14873E+00
 -1       178 4.91724E+00-6.83871E+00 1.26497E+00 6.80414E+00-1.45647E+02-7.43113E+00
 -1       179 3.44247E+00-9.54517E+00 4.57385E+00-2.77804E+00-2.19049E+02 4.67306E+00
 -1       180 6.67264E+00-3.94157E-01-7.31288E+00 6.69670E-01-2.31935E+02-1.78439E+00
 -1       181 4.59035E+01 7.49732E-05 8.20366E-05-1.03585E+01-2.88262E-05-3.22545E+00
 -1       182-9.71913E-01-2.92225E-05-2.58182E-05 2.35580E+00-2.92649E-05-1.95330E+01
 -1       183 2.85352E+01-4.88128E-01-4.66659E+00-3.09083E-02 2.21412E+00-1.81162E+01
 -1       184-4.40133E+01-9.03906E-05-8.34867E-05 1.15523E+01-1.78526E-05-5.94923E-01
 -1       185-1.89021E+01-6.40582E-05-6.87375E-05 2.19524E+01-8.36169E-06-2.66209E+00
 -1       186 9.20004E+00-2.59148E+00-1.68737E+00 2.11981E+01 2.21776E+00-3.92875E+00
 -1       187 4.58220E+01 2.97511E-01-2.66913E+00 4.80252E+00-1.09946E+00 8.17162E+00
 -1       188-4.49025E+01 2.07278E+00 1.30346E+00-9.52853E+00-1.72737E+00 5.01216E+00
 -1       189-2.28818E+01 3.95815E+00 4.27393E+00-2.89552E-01 4.61968E+00 1.89051E+01
 -1       190 1.00109E+01 4.75049E-05 5.27506E-05 3.70727E+00-2.26439E-05 1.84475E+01
 -1       191-1.77300E+01 1.63078E+00-2.62081E-01-1.45873E+01 2.35019E+00 5.54588E+00
 -1       192 1.88002E+01 4.81197E-05 6.34829E-05-1.85887E+01-2.99077E-05-1.71589E+00
 -1       193-3.17412E+01-3.78698E-01 3.31042E+00 4.98986E+00 7.65624E-01-1.62848E+01
 -1       194 1.87505E+01-8.29629E-01 6.39601E-02 1.25134E+01 7.84528E-01 5.85568E+00
 -1       195-3.77636E+00 1.75270E-05 4.40070E-05-2.10037E+01-3.55092E-05-2.54762E+00
 -1       196-2.79886E+00-1.71079E+00 2.33633E+00-5.22942E+00 1.24338E+00-1.55622E+00
 -1       197 1.23608E+00-5.91265E-01 4.07288E-02 5.41261E+00 1.23210E+00-9.31829E+00
 -1       198-7.90356E+00 2.81191E-06-1.18692E-05 6.71530E+00-7.02240E-05 8.82170E-02
 -1       199-5.99537E+01 2.21615E+01 1.88418E+01 1.13497E+01-2.57114E+01-1.88213E+00
 -1       200-5.81252E+00 1.78533E+01-8.61927E+00 1.27931E+01-6.94520E+01 2.64021E+00
 -1       201-2.50994E+01 2.04583E+01 6.61400E+00 3.18458E+01-3.30663E+01-1.77735E-01
 -1       202-1.02605E+01 1.11653E+00 1.29598E+01-1.80808E+00-8.03995E+01-6.15770E+00
 -1       203-2.02881E+00-2.26952E-01 2.47736E+00 6.15414E+00-1.49767E+02-1.09043E+00
 -1       204 2.28582E+01-1.33323E+01-8.32441E+00-1.55846E+01-8.95627E+01 2.15840E+00
 -1       205 3.66729E+01-1.43730E+01-2.09783E+01-1.14601E+01-2.46363E+01-7.32011E+00
 -1       206-1.67481E+01-9.45954E-01 2.19599E+01 4.90763E+00-6.03247E+01 1.54947E+01
 -1       207-1.78899E+01 1.68473E+01 3.80990E+00-1.24598E+01-7.01449E+01-1.04614E+00
 -1       208-8.51778E+00 4.99044E+00 8.65300E+00 6.00963E+00-1.46817E+02 3.07602E+00
 -1       209-2.00238E+00 2.47377E+00 2.75969E+00 1.11039E+01-2.81503E+01-1.19973E+00
 -1       210-1.08581E+01 5.70670E+00 2.17285E+00 6.64429E-01-7.97594E+01 4.60277E-01
 -1       211 2.39332E+01-9.11715E+00-1.08384E+01 5.93002E+00-2.61923E+01 1.11505E+01
 -1       212-1.08125E+00 5.00318E+00 4.42162E-01-2.05854E+00-2.69480E+01 8.33981E+00
 -1       213 2.62440E+01-5.50052E+00-1.40590E+01 1.48543E+00 7.98122E+00 1.43037E+01
 -1       214 8.47213E+00 1.44548E-01-8.66612E+00-2.57354E+00-2.17656E+01 2.66604E+01
 -1       215 5.49325E-01-1.13027E+00-6.85176E-01 4.08248E-01-6.55645E+00-5.57072E+00
 -1       216-2.21713E+01 6.59178E+00 8.12410E+00 1.30168E+00 7.41212E+00-1.41041E+01
 -1       217 1.98939E+00-4.38781E-01-1.43948E+00-1.32881E+00-5.85793E+01-3.47014E+00
 -1       218-2.88362E+01 9.20481E+00 1.10193E+01 5.62924E+00-2.62015E+01-1.38605E+01
 -1       219-9.65339E+00 2.76242E+00 3.38105E+00-1.88822E+00-7.29309E+00-2.21086E+01
 -1       220 1.38620E+00-1.37350E+00-1.55825E+00-8.54862E+00-5.32436E+01-1.28953E+00
 -1       221-1.49368E+01 4.03393E+00 7.65812E+00-2.42731E+00-1.79863E+00 1.74006E+01
 -1       222-3.77065E+01 1.07015E+01 1.67429E+01-3.49745E+00-2.42041E+01 2.44334E+01
 -1       223-6.70415E+01 2.25226E+01 1.36645E+01-1.20049E+01 5.55581E+00 7.92506E+00
 -1       224-6.22353E+01 2.19806E+01 1.93336E+01-1.74837E+01 3.22288E+00 1.44149E+01
 -1       225-3.77147E+01 1.74790E+01 1.26266E+01-2.04916E+01-2.41389E+01 6.43138E+00
 -1       226-6.88708E+01 2.60303E+01 2.53358E+01-3.84272E+00-1.66874E+01 6.67504E+00
 -1       227 7.16470E+01-2.39981E+01-2.32548E+01-1.73664E+01 5.40838E+00-1.11502E+01
 -1       228-2.39320E+01 1.15676E+01 5.88852E+00-1.56416E+01 3.60276E+00-3.62291E-02
 -1       229-1.32243E+01 4.81551E+00 7.23312E+00-2.47859E+01-1.06186E+01 5.81486E-01
 -1       230 3.00438E+01-1.57492E+01-5.85627E+00-2.24703E+01-1.65292E+01-2.19745E-01
 -1       231 3.07658E+01-1.54272E+01-6.79901E+00-1.57697E+01-4.31852E+00-5.09874E+00
 -1       232-8.62430E-03 3.13907E+00-5.31904E+00-3.14626E+00-3.77414E+01 3.08464E+01
 -1       233 7.46648E+01-2.98964E+01-2.14610E+01-2.09091E+01 1.40960E+00-8.32465E+00
 -1       234 4.18677E+01-1.85677E+01-1.66018E+01-1.32375E+01-1.04359E+01-2.10614E+01
 -1       235 4.36119E+01-1.50113E+01-1.42789E+01-1.81929E+00-7.62068E+00-1.79435E+01
 -1       236 1.28486E+01-3.55873E+00-6.31432E+00-3.18991E+00-2.20460E+01-2.77058E+01
 -1       237-6.43866E+00 7.08129E+00 1.04591E+00 2.21327E+00-1.44118E+02 1.75067E+00
 -1       238 9.19885E+00-6.83234E+00-2.58376E+00-2.43209E+01-3.21529E+01 8.99808E-01
 -1       239 3.53066E+01-1.27671E+01-1.25274E+01-7.96483E+00 7.16131E+00-1.92675E+01
 -1       240-6.04675E+00 3.13923E+00 3.81908E+00-4.46925E-01 7.71938E+00-1.89402E+01
 -1       241 2.75299E+01-1.21977E+01-1.54108E+01 3.07266E+00-4.10658E+01 1.23562E+01
 -1       242 8.50282E+00 3.09398E-01-6.69040E+00-3.70250E+00-1.04654E+02 1.73536E+01
 -1       243 1.41407E+01-5.56760E+00-9.59936E+00-2.00152E+00-5.72531E+01 1.64064E+01
 -1       244 4.95830E+00-1.35519E+01 4.05079E+00 1.69479E+01-6.94453E+01-3.68177E+00
 -1       245 2.46926E+00-8.34433E+00-1.50662E-01 1.20286E+00-1.50740E+02 3.94008E+00
 -1       246-3.68708E+01 1.14952E+01 1.01352E+01 2.07119E+01 5.35697E+00-2.56656E+00
 -1       247-2.18095E+01 9.79890E+00 6.36075E+00 1.78698E+01 7.64325E+00-2.29478E+00
 -1       248-5.93535E+00 1.57976E+00-5.11931E-01 9.05548E+00 9.96930E+00-2.73464E+00
 -1       249 1.57769E+01-4.56771E+00-2.83590E+00 1.63255E+01 7.99964E+00 2.37993E+00
 -1       250-6.28540E+01 1.61468E+01 1.50831E+01 1.03130E+01 3.70880E+00-8.59321E+00
 -1       251-3.18860E+00 7.39284E-01 6.34425E+00 2.08779E+00-1.53786E+02 1.14466E+00
 -1       252 6.63278E+00-6.41285E+00 4.73806E-02-2.26790E+00-1.13249E+02-2.84475E+00
 -1       253 2.39061E+01-7.02443E+00-9.42428E+00-1.39774E+00 6.86045E+00-1.58513E+01
 -1       254 1.41369E+01-3.18197E+00-6.47071E+00-1.19472E+01 1.12031E+01-3.98357E+00
 -1       255 6.08794E+01-1.84009E+01-1.98595E+01 1.60346E+01 8.45208E+00 1.54735E+01
 -1       256-5.37704E+01 1.96514E+01 1.56843E+01 1.46487E+01 2.49260E+00-1.44135E+01
 -1       257 2.32218E+00-1.41995E+00-2.75748E+00 2.69334E+00 1.22495E+01 3.02585E+00
 -1       258 2.54353E+00-6.25406E-01 1.06605E+00-2.06635E+00 1.14693E+01-5.10997E+00
 -1       259-3.17392E+01 9.09497E+00 8.50188E+00 6.59343E+00 8.11443E+00-1.92031E+01
 -1       260 5.81006E+01-1.30095E+01-1.90328E+01 1.30145E+01 6.69816E+00 1.26840E+01
 -1       261 2.13278E+01-1.04945E+01-6.31790E+00 1.79045E+01 2.37792E+00 1.82184E+00
 -1       262-6.31706E+01 2.00149E+01 2.14181E+01 1.49675E+01 7.95015E+00-1.46134E+01
 -1       263-3.71974E+00 3.23244E+00 1.55081E+00 5.81331E-01-4.63829E+01-2.26676E+01
 -1       264 1.08697E+01-2.73032E+00-9.88165E+00 5.08808E-01-9.28958E+01-1.89984E+01
 -1       265-2.97541E+01 1.36068E+01 8.21261E+00-1.48923E+01 8.60364E+00 6.57892E+00
 -1       266 1.17205E+01-5.26427E+00-4.39015E+00-1.06765E+01 1.16483E+01 4.01880E+00
 -1       267-1.90999E+01 7.76482E+00 9.47138E+00-4.24674E+00 5.25834E+00 2.36889E+01
 -1       268 2.01516E+01-4.04465E+00-8.70658E+00 2.46587E+00 9.06239E+00 2.10860E+01
 -1       269 5.44437E+01-2.21704E+01-1.58518E+01 1.28488E+01-2.64386E+01 1.91718E+00
 -1       270 3.18268E+01-7.69711E+00-8.54880E+00-1.47050E+01 8.67507E+00-3.63270E+00
 -1       271-1.57815E+01 1.24326E+01 9.86493E-01 1.94009E+01-3.13150E+00 6.94234E-01
 -1       272 6.04846E+01-1.40336E+01-1.46291E+01-8.88858E+00 5.39890E+00-7.91052E+00
 -1       273 1.93315E+01-1.14044E+01-3.49511E+00 2.70874E+01-2.68822E+01 1.24717E+00
 -3
    1PSTEP                        22           1           1          
    1PGM                1.000000E+00                                  
    1PGK                1.735020E+12                                  
    1PHID                         -1                                  
    1PSUBC                         0                                  
    1PMODE                         8                                  
  100CL  108 2.09639E+05         273                     2    8MODAL      1
 -4  DISP        4    1
 -5  D1          1    2    1    0
 -5  D2          1    2    2    0
 -5  D3          1    2    3    0
 -5  ALL         1    2    0    0    1ALL
 -1         1-4.80208E+01-5.33794E+02-5.47019E+02
 -1         2 2.29572E+01-3.44389E+02 3.87074E+02
 -1         3 4.78939E+01 3.37231E+02-2.84666E+02
 -1         4-1.86623E+01 3.56995E+02 3.74836E+02
 -1         5 0.00000E+00 0.00000E+00 0.00000E+00
 -1         6 0.00000E+00 0.00000E+00 0.00000E+00
 -1         7 0.00000E+00 0.00000E+00 0.00000E+00
 -1         8 0.00000E+00 0.00000E+00 0.00000E+00
 -1         9 0.00000E+00 0.00000E+00 0.00000E+00
 -1        10 0.00000E+00 0.00000E+00 0.00000E+00
 -1        11-2.19400E+00 1.90640E+02-1.38757E+02
 -1        12-7.44069E+00 1.33346E+02-6.38760E+01
 -1        13-6.51830E+02 1.76141E+02 9.57511E+02
 -1        14-6.34557E+02-1.46231E+02 9.51649E+02
 -1        15 2.51720E+01-2.73704E+02-2.90041E+02
 -1        16-9.00120E+00-1.69778E+02-2.18050E+02
 -1        17 0.00000E+00 0.00000E+00 0.00000E+00
 -1        18 0.00000E+00 0.00000E+00 0.00000E+00
 -1        19-1.64994E+01 2.75601E+02 2.72282E+02
 -1        20-2.44914E+01 6.74055E+01 8.15299E+01
 -1        21-5.71243E+02 1.62588E+02-8.61862E+02
 -1        22-6.89963E+02-3.30908E+02-1.01191E+03
 -1        23 3.17447E+00-1.73681E+02 1.74293E+02
 -1        24 2.36490E+01-1.13436E+02 1.31767E+02
 -1        25 6.62485E+02-9.76933E+02-2.93682E+02
 -1        26 5.34717E+02-8.25427E+02 2.14719E+02
 -1        27 0.00000E+00 0.00000E+00 0.00000E+00
 -1        28 0.00000E+00 0.00000E+00 0.00000E+00
 -1        29 6.68867E+02 9.41992E+02-1.63303E+02
 -1        30 6.51806E+02 9.46148E+02 2.06458E+02
 -1        31 0.00000E+00 0.00000E+00 0.00000E+00
 -1        32 0.00000E+00 0.00000E+00 0.00000E+00
 -1        33-8.64435E+01-1.40972E+02-3.91321E+01
 -1        34-2.78115E+02 8.67232E+01 7.76315E+01
 -1        35-4.48752E+02-8.39220E+01 2.37605E+02
 -1        36-1.18151E+02-8.77347E+01 2.86551E+01
 -1        37-3.27600E+02 1.36240E+02-3.97551E+01
 -1        38-4.75033E+02-1.01427E+02-2.31285E+02
 -1        39 3.33751E+02-6.88019E+01 1.47002E+02
 -1        40 5.85018E+02-3.62986E+02-3.59143E+01
 -1        41 2.42481E+02-6.07539E-01-2.24023E+01
 -1        42 1.36993E+02-2.28922E+01 8.54932E+01
 -1        43 6.30569E+02 3.77176E+02-2.04965E+01
 -1        44 1.88867E+02-3.48734E+01-1.63820E+02
 -1        45-1.57851E+01 3.92201E+02-3.42696E+02
 -1        46-1.31006E+02 2.76246E+02 5.69370E+02
 -1        47 1.11273E+02-5.01553E+02 2.74966E+01
 -1        48 0.00000E+00 0.00000E+00 0.00000E+00
 -1        49 0.00000E+00 0.00000E+00 0.00000E+00
 -1        50 0.00000E+00 0.00000E+00 0.00000E+00
 -1        51 5.72901E+01-1.84591E+02-1.20661E+02
 -1        52-1.60203E+02 3.51497E+01 2.26223E+02
 -1        53 1.83287E+01 4.59485E+01-4.80920E+01
 -1        54 7.29039E+00-1.93580E+01 1.66034E+01
 -1        55 0.00000E+00 0.00000E+00 0.00000E+00
 -1        56 0.00000E+00 0.00000E+00 0.00000E+00
 -1        57 0.00000E+00 0.00000E+00 0.00000E+00
 -1        58-6.10872E+00 9.69548E+01-5.59357E+01
 -1        59-1.33891E+01 2.16686E+02-1.59723E+02
 -1        60 5.10327E+00-9.12855E+01 1.42646E+02
 -1        61-3.49572E+02 3.15153E+02 6.91499E+02
 -1        62-7.19107E+02 2.61062E+01 1.01478E+03
 -1        63-2.99506E+02-2.95403E+02 6.78540E+02
 -1        64 1.56435E+00-1.49961E+02-1.47683E+02
 -1        65-4.84106E+00-2.86013E+02-3.13929E+02
 -1        66-2.23195E+01 8.07026E+01 7.69735E+01
 -1        67 0.00000E+00 0.00000E+00 0.00000E+00
 -1        68 0.00000E+00 0.00000E+00 0.00000E+00
 -1        69 0.00000E+00 0.00000E+00 0.00000E+00
 -1        70-1.30901E+01 1.53905E+02 1.51514E+02
 -1        71-1.17519E+01 2.18995E+02 2.44363E+02
 -1        72-2.91277E+01-2.39322E+02-2.28694E+02
 -1        73-2.44566E+02 2.95953E+02-5.88826E+02
 -1        74-7.15425E+02-5.77512E+01-9.82929E+02
 -1        75-3.61587E+02-4.92677E+02-7.78849E+02
 -1        76-9.27478E+00-9.46130E+01 1.04864E+02
 -1        77 2.31472E+01-1.92571E+02 1.80000E+02
 -1        78 4.56174E+01 8.12837E+01-4.21571E+01
 -1        79 3.16940E+02-7.71304E+02-4.81215E+02
 -1        80 6.79446E+02-9.69865E+02-1.54177E+01
 -1        81 2.62832E+02-6.12549E+02 3.46007E+02
 -1        82 0.00000E+00 0.00000E+00 0.00000E+00
 -1        83 0.00000E+00 0.00000E+00 0.00000E+00
 -1        84 0.00000E+00 0.00000E+00 0.00000E+00
 -1        85 3.55125E+02 6.43913E+02-2.54219E+02
 -1        86 7.41235E+02 1.00602E+03 1.41485E+01
 -1        87 3.00912E+02 6.66039E+02 3.39828E+02
 -1        88 0.00000E+00 0.00000E+00 0.00000E+00
 -1        89 0.00000E+00 0.00000E+00 0.00000E+00
 -1        90 0.00000E+00 0.00000E+00 0.00000E+00
 -1        91-9.63192E+00-1.12051E+02-7.41124E+01
 -1        92-1.86356E+01-2.24673E+02-1.55533E+02
 -1        93-2.75741E+01-8.56642E+01-1.65213E+01
 -1        94-3.75093E+01-3.41777E+01 1.67130E+00
 -1        95-5.10318E+00 9.90132E+01-3.13505E+01
 -1        96-8.09814E+01 1.71120E+02-4.48444E+01
 -1        97-1.87855E+02 1.68343E+02 4.61996E+01
 -1        98-3.20010E+02-6.41835E+01 4.03962E+02
 -1        99-3.43790E+02 6.61641E+01 3.77424E+02
 -1       100-6.78376E+02 2.07190E+01 5.99881E+02
 -1       101-5.91838E+02 1.90929E+01 5.36405E+02
 -1       102-2.67618E+02-1.59632E+02 5.64722E+01
 -1       103-1.32925E+02-2.41458E+02-1.02894E+02
 -1       104-1.11711E+02 6.11196E+01 5.90437E+00
 -1       105-5.04567E+02 4.24856E+01 3.95872E+02
 -1       106-2.53529E+02-1.51879E+02 3.24298E+01
 -1       107-4.40673E+02-1.95535E+01 1.77740E+02
 -1       108-2.34491E+02-4.05238E+01 3.53924E+01
 -1       109-1.15680E+01-5.35507E+01 3.89745E+01
 -1       110-4.20503E+01-2.88233E+01 8.17347E+00
 -1       111-5.37396E+01 7.05658E+00 1.66146E+01
 -1       112-3.85078E+00 1.39486E+02 9.17304E+01
 -1       113-2.46288E+02 1.43260E+02-3.56807E+00
 -1       114-1.13346E+02 2.30973E+02 1.28408E+02
 -1       115-3.69988E+02-2.13579E+02-4.49729E+02
 -1       116-2.48112E+02 5.23385E+01-3.18783E+02
 -1       117-5.58613E+02-2.83735E+01-5.19296E+02
 -1       118-7.22257E+02-6.56329E+01-5.96117E+02
 -1       119-2.12248E+02-1.08585E+02-7.47685E+01
 -1       120-1.22443E+02-1.75831E+02 3.80889E+01
 -1       121-4.55019E+01-1.40416E+02 8.73689E+01
 -1       122-1.22148E+02 1.03427E+02 3.58987E+01
 -1       123-5.71628E+02-5.60892E+01-4.03003E+02
 -1       124-2.82395E+02-1.12936E+02-5.78665E+01
 -1       125-2.60278E+02 2.35384E+01-1.03064E+01
 -1       126-4.80036E+02-1.50142E+01-1.66945E+02
 -1       127-1.10411E+01 1.11216E+02 1.64251E+02
 -1       128 9.32171E+01 1.09422E+02 2.43547E+02
 -1       129 2.05743E+02-3.31637E+01 1.59899E+02
 -1       130 3.45676E+02-4.45388E+02-1.91991E+02
 -1       131 7.03536E+02-6.69131E+02-7.12196E+01
 -1       132 5.87278E+02-5.80166E+02 3.55933E+01
 -1       133 2.64552E+02-3.30847E+02 1.18338E+02
 -1       134-3.31964E+00 6.06457E+01-5.82976E+01
 -1       135 1.89533E+02 4.74265E+01-1.19279E+02
 -1       136 6.80361E+01 8.87781E+01-1.08652E+02
 -1       137 7.80204E+01 2.01327E+01-2.01004E+01
 -1       138 9.84367E+01 3.59921E+00 6.64862E+01
 -1       139 5.51883E+02-4.30666E+02-3.83764E+01
 -1       140 3.16409E+02-1.59786E+02-2.17098E+01
 -1       141 1.36793E+02 3.72009E+01 1.64016E+02
 -1       142 3.47381E+02-6.01963E+01 7.62871E+01
 -1       143 4.13666E+02-1.41113E+02-2.13940E+01
 -1       144 5.13279E+02-2.49826E+02 2.01443E+01
 -1       145-1.11385E+01-7.02513E+01 8.96771E+01
 -1       146 4.09976E+01-9.29492E+01 1.46505E+02
 -1       147 1.24343E+02-6.29538E+01 1.55143E+02
 -1       148 3.26871E+02 3.37582E+02-3.04563E+01
 -1       149 7.07445E+02 6.27414E+02 8.65418E+00
 -1       150 6.84656E+02 6.39435E+02-1.14609E+01
 -1       151 3.18917E+02 3.56830E+02 6.33445E+01
 -1       152 1.74199E+00-1.01397E+02-1.44595E+02
 -1       153 6.52948E+01-1.44147E+02-2.61920E+02
 -1       154 1.87969E+02-6.72168E+01-2.85843E+02
 -1       155 6.86947E+01-3.25841E+01-1.10260E+02
 -1       156 7.77247E+01-8.28841E+00-2.73829E+01
 -1       157 3.54522E+02 1.89677E+02 6.06692E+01
 -1       158 4.19402E+02 2.16259E+02-1.17607E+02
 -1       159 4.66001E+01-2.67686E+01 5.62233E+01
 -1       160 2.18867E+02 3.23653E-01-2.28858E+01
 -1       161 3.55363E+02 1.10225E+02 3.49851E+01
 -1       162 4.26423E+02 1.28938E+02-9.20309E+01
 -1       163 2.83219E+01 5.53124E+02-5.18440E+02
 -1       164 2.82252E+02 7.50556E+02-2.95228E+02
 -1       165 3.58553E+02 8.15104E+02 6.27395E+01
 -1       166-4.27598E+01 5.59795E+02 5.95207E+02
 -1       167-3.42642E+02 2.58047E+02 8.21683E+02
 -1       168-3.90046E+02-3.60785E+01 8.51656E+02
 -1       169-1.72225E+01-5.15727E+02 5.83896E+02
 -1       170-1.54240E+01-6.69639E+02-6.63118E+02
 -1       171 3.21128E+02-7.44513E+02 2.00514E+02
 -1       172 3.53806E+02-8.23562E+02-1.76889E+02
 -1       173-1.08158E+02-4.39635E+02-6.19379E+02
 -1       174-3.54793E+02-4.40727E+01-7.83342E+02
 -1       175-2.65821E+02 3.09204E+02-6.86439E+02
 -1       176 1.49250E+02 6.99527E+02 4.25485E+02
 -1       177 2.05564E+01 3.62730E+02 1.30677E+02
 -1       178-1.27152E+02-3.63639E+02 5.88943E+02
 -1       179-6.34729E+01-1.12577E+02 3.14102E+02
 -1       180-2.76157E+01-5.53661E+01-1.76948E+02
 -1       181 0.00000E+00 0.00000E+00 0.00000E+00
 -1       182 0.00000E+00 0.00000E+00 0.00000E+00
 -1       183 0.00000E+00 0.00000E+00 0.00000E+00
 -1       184 0.00000E+00 0.00000E+00 0.00000E+00
 -1       185 0.00000E+00 0.00000E+00 0.00000E+00
 -1       186 0.00000E+00 0.00000E+00 0.00000E+00
 -1       187 0.00000E+00 0.00000E+00 0.00000E+00
 -1       188 0.00000E+00 0.00000E+00 0.00000E+00
 -1       189 0.00000E+00 0.00000E+00 0.00000E+00
 -1       190 0.00000E+00 0.00000E+00 0.00000E+00
 -1       191 0.00000E+00 0.00000E+00 0.00000E+00
 -1       192 0.00000E+00 0.00000E+00 0.00000E+00
 -1       193 0.00000E+00 0.00000E+00 0.00000E+00
 -1       194 0.00000E+00 0.00000E+00 0.00000E+00
 -1       195 0.00000E+00 0.00000E+00 0.00000E+00
 -1       196 0.00000E+00 0.00000E+00 0.00000E+00
 -1       197 0.00000E+00 0.00000E+00 0.00000E+00
 -1       198 0.00000E+00 0.00000E+00 0.00000E+00
 -1       199-9.57542E+01 5.92830E+01 1.56825E+02
 -1       200-3.55904E+02 1.16332E+02 5.64491E+02
 -1       201-3.04739E+02 1.89166E+01 2.68399E+02
 -1       202 1.29172E+02 4.09965E+02 2.52873E+02
 -1       203-1.53547E+02 1.29814E+02 3.82625E+02
 -1       204-2.55880E+02 1.28428E+02-3.98148E+02
 -1       205 1.23629E+01 2.43568E+02-2.29871E+02
 -1       206 3.13362E+02-5.38581E+02-2.17784E+02
 -1       207-2.58377E+02-2.60985E+02-5.17337E+02
 -1       208 1.16807E+02-3.38463E+02-1.15500E+02
 -1       209-3.63915E+01 6.85587E+00 5.36986E+01
 -1       210 9.00063E+00-6.52715E+01 4.64225E+01
 -1       211 6.27696E+01-4.66099E+01 5.97891E+01
 -1       212 1.22829E+01-2.95072E+01 5.12351E+00
 -1       213 8.55131E+01-4.27557E+00 2.01520E+01
 -1       214 2.50588E+02-1.20950E+02 2.10841E+01
 -1       215 2.43430E+01 8.29609E+00 5.94242E-01
 -1       216 7.74896E+01-1.46400E+01-3.40076E+01
 -1       217 1.16115E+01 7.48754E+01 2.80265E+01
 -1       218 1.09955E+02 4.43705E+01-2.04311E+01
 -1       219 1.84095E+02 3.45857E+01-2.21459E+01
 -1       220-6.46523E+01-1.06509E+01-9.15962E+01
 -1       221 1.06953E+02-2.58952E+01 5.21996E+01
 -1       222 2.16885E+02-1.61240E+02-9.59925E+00
 -1       223-1.48336E+01 1.19710E+02 1.19670E+02
 -1       224-2.82924E+01 6.40065E+01 8.52809E+01
 -1       225-1.82785E+02-2.20195E+01-1.06565E+02
 -1       226 2.73883E+01-1.60068E+02-1.29288E+02
 -1       227-1.99443E+01-8.68437E+01 7.49654E+01
 -1       228-9.05842E+01 2.98169E+01 1.10519E+01
 -1       229-2.16932E+02 1.64421E+01-8.36497E+01
 -1       230-1.80427E+02 7.38534E+00-1.29756E+02
 -1       231-9.97672E+01-3.54586E+01-1.08836E+01
 -1       232 3.37294E+02-3.20431E+02-1.49739E+01
 -1       233-3.00080E+01-6.85555E+01 3.54229E+01
 -1       234 1.07016E+02 1.36602E+02-5.20741E+01
 -1       235 1.11327E+02 1.46425E+01 1.20672E+01
 -1       236 2.66527E+02 1.88678E+02-1.93885E+01
 -1       237-8.60450E+01-3.79889E+01-2.60159E+02
 -1       238-3.15729E+02-2.43449E+01-2.49740E+02
 -1       239 2.00184E+01-3.03258E+01 3.58086E+01
 -1       240 5.09071E+01-1.98604E+01-1.82207E+01
 -1       241 5.88865E+01-3.18124E+02 3.08611E+02
 -1       242 3.58751E+02-5.23993E+02 3.86650E+01
 -1       243 1.11946E+02-1.79338E+02 1.23167E+02
 -1       244-3.81056E+02-4.75264E+01 5.75637E+02
 -1       245-3.66203E+01-1.29932E+02 2.00228E+02
 -1       246-3.00400E+01-5.13844E+01-2.23157E+01
 -1       247-6.63533E+01-4.93199E+01-2.26430E+01
 -1       248-1.38132E+01-1.63224E+01-1.76092E+01
 -1       249-2.62280E+01 7.67984E+00-8.31708E+00
 -1       250-1.02615E+00-7.39369E+01-7.39404E+01
 -1       251 2.24814E+00 1.87755E+02 5.84429E+01
 -1       252 4.12177E+00 1.85537E+02-1.46796E+02
 -1       253 8.14508E+01 4.52085E+00 1.92362E+01
 -1       254-5.37468E+01-1.54380E+01 1.77970E+01
 -1       255 1.84923E+01 6.59308E+01-1.39707E+01
 -1       256-1.07213E+00-7.00205E+01-8.91721E+01
 -1       257 1.97027E+01 1.01791E+01 9.77088E+00
 -1       258 1.02097E+00-1.00196E+01 1.47336E+01
 -1       259 2.37991E+01-4.11752E+01-7.46498E+01
 -1       260 9.46047E+00 6.26298E+01-3.65775E+01
 -1       261-9.91238E+01-7.60401E+00 3.27101E+01
 -1       262 1.11137E+01-1.13554E+02-1.38989E+02
 -1       263 2.18368E+02 2.46423E+02 3.96819E+01
 -1       264 3.34756E+02 5.08212E+02-8.00064E+01
 -1       265-3.18971E+01 5.82175E+01 6.20871E+01
 -1       266-2.99533E+01 4.10890E+00 3.38796E+01
 -1       267 1.03488E+02 2.97434E+01 8.74025E+01
 -1       268 6.65604E+01 2.37511E+01 1.51968E+01
 -1       269-1.57954E+02-4.34601E+01 2.24321E+02
 -1       270-3.13502E+01-3.23350E+01 2.28479E+01
 -1       271-1.26249E+02-2.55385E+01 5.00422E+01
 -1       272-2.19025E+01-4.27572E+01 4.67494E+01
 -1       273-2.59951E+02 6.41148E+00 1.84037E+02
 -3
    1PSTEP                        23           1           1          
    1PGM                1.000000E+00                                  
    1PGK                1.735020E+12                                  
    1PHID                         -1                                  
    1PSUBC                         0                                  
    1PMODE                         8                                  
  100CL  108 2.09639E+05         273                     2    8MODAL      1
 -4  STRESS      6    1
 -5  SXX         1    4    1    1
 -5  SYY         1    4    2    2
 -5  SZZ         1    4    3    3
 -5  SXY         1    4    1    2
 -5  SYZ         1    4    2    3
 -5  SZX         1    4    3    1
 -1         1-2.68936E+06 1.49753E+06 2.13428E+05 8.28189E+04-8.98840E+05 1.39894E+06
 -1         2 3.18403E+06 1.34368E+06 8.55889E+05 1.82144E+06 3.67035E+05 1.77163E+06
 -1         3-9.15821E+05 2.32143E+05-1.79365E+05 1.10573E+06-1.27717E+04 1.02550E+06
 -1         4 1.43385E+06 8.51965E+05-1.14884E+06-1.14164E+06-1.16009E+06-6.97643E+05
 -1         5-2.95255E+06-1.26539E+06-1.26539E+06 7.99847E+06-3.16141E+00 7.85156E+06
 -1         6-1.83117E+06-7.84784E+05-7.84786E+05 4.63838E+06-3.40821E+00-1.99916E+06
 -1         7-1.92553E+06 1.74655E+06 4.40096E+05-2.43634E+06-1.61456E+06 3.84064E+06
 -1         8 2.23059E+06 4.90749E+04 6.83898E+05-7.97224E+06-1.02719E+05-7.27858E+06
 -1         9-2.40522E+06-1.03084E+06-1.03082E+06-5.81054E+06 1.88446E-01-7.76505E+05
 -1        10-6.61059E+06 7.71021E+05 4.02061E+05 2.93864E+06-2.79077E+05-5.49791E+04
 -1        11 5.79195E+05 2.04924E+06 3.06144E+04 3.67042E+06 8.42836E+05-4.10366E+06
 -1        12-6.89807E+05 2.52311E+06-2.48966E+06 3.78834E+06 1.48765E+05-3.57876E+06
 -1        13-5.40764E+06-1.84554E+07 7.42699E+06-3.95977E+05-2.71790E+05 3.27232E+05
 -1        14-4.69552E+06-2.07837E+07 1.04489E+07 2.34696E+06-9.58645E+05 2.34840E+05
 -1        15 7.19623E+05 2.89708E+06 1.12733E+06-5.16983E+06 4.07884E+05-4.62022E+06
 -1        16-3.26596E+05 1.85335E+06-5.32068E+06-2.77879E+06 5.29536E+05-3.71125E+06
 -1        17-5.09487E+06-2.18353E+06-2.18353E+06-8.01509E+05 3.77616E+00 1.17449E+05
 -1        18-6.97577E+06-1.44952E+06-2.22689E+06 4.90757E+06-2.39542E+05 1.75255E+06
 -1        19 1.49156E+06 4.25193E+06 4.30771E+05 3.31624E+06 2.00176E+05 3.41491E+06
 -1        20 6.42759E+05 3.83005E+06-2.60397E+06 2.87755E+06 6.76209E+05 2.56715E+06
 -1        21-4.66789E+06-2.24160E+07 2.28513E+06-3.00464E+06-1.13589E+06-2.87714E+06
 -1        22-5.55969E+06-2.93048E+07 6.66462E+06 9.75683E+05 1.54731E+06-1.67382E+05
 -1        23 3.80422E+06 2.71146E+06 2.56271E+04-4.54043E+06 1.03029E+06 2.19273E+06
 -1        24 2.37121E+06 3.02529E+06-1.99694E+06-3.67105E+06-6.70530E+05 5.73306E+06
 -1        25 5.62868E+06-4.74020E+06 2.89898E+07 1.79126E+05-3.48866E+05 7.83005E+05
 -1        26 2.76455E+06-5.16141E+06 2.17997E+07-2.79044E+06 6.72424E+04-1.62269E+06
 -1        27 7.92532E+06-1.88833E+05 5.31950E+05 2.00957E+06-7.53840E+05 8.92901E+06
 -1        28 2.92140E+06 7.70594E+05 5.02446E+05 1.18944E+06-3.24021E+05-1.86870E+06
 -1        29 9.96526E+06-5.94524E+06 1.69912E+07 2.14710E+06 1.30033E+06 1.82422E+06
 -1        30 4.42628E+06-7.36715E+06 2.21142E+07 2.17835E+06-5.03394E+05-2.50930E+06
 -1        31 3.83658E+06 8.91973E+05 1.10608E+05-1.75510E+06 6.19678E+05 3.50809E+06
 -1        32 4.69383E+06 1.03017E+06 1.03036E+06-1.96783E+06-6.13538E+05-6.77865E+06
 -1        33-8.40345E+06 8.10238E+06 2.23698E+06-5.66197E+06 5.85313E+05-1.60975E+06
 -1        34-1.59127E+07 9.87381E+06-1.36130E+05 7.25993E+06 3.94783E+05-1.78618E+06
 -1        35-1.89276E+07 7.04380E+06 1.98026E+06-3.67654E+06 6.72749E+05 7.08251E+05
 -1        36-1.18442E+07 4.58865E+06-7.04106E+05-5.03606E+06-1.47631E+05 1.31658E+06
 -1        37-1.79952E+07 6.65419E+06 5.56395E+05 3.31920E+06 9.03340E+05 1.08956E+06
 -1        38-1.61530E+07 1.12962E+06 1.71921E+06-8.70698E+06 5.19095E+05 1.57628E+06
 -1        39 1.65903E+07-9.41674E+04-6.18158E+06 2.11616E+06-9.64157E+04 3.81740E+06
 -1        40 1.47896E+07-1.68303E+06 5.46793E+06 2.27064E+06 1.62672E+05-5.76237E+06
 -1        41 1.54105E+07 1.74609E+06-7.51624E+06 1.52903E+06 1.11371E+06-5.64152E+06
 -1        42 1.30906E+07 8.68268E+05-6.18434E+06-1.81259E+06 1.39284E+06 5.81681E+06
 -1        43 1.83356E+07-1.98774E+06-2.67724E+06-2.42133E+05 1.09898E+06 3.81993E+06
 -1        44 1.69474E+07 2.26569E+06-1.01527E+07-1.30598E+06 9.54617E+05-5.34842E+06
 -1        45-2.40263E+06-4.14846E+07 3.66695E+07-7.40179E+05 1.36763E+05 1.13381E+06
 -1        46-8.24013E+04-4.43650E+07 3.39797E+07-2.79087E+05-6.49374E+05 3.57646E+05
 -1        47-2.53472E+06-3.67831E+07 4.45536E+07 6.42668E+05 1.46575E+06-3.82940E+05
 -1        48-9.22771E+05 9.96000E+03-2.75134E+05-1.14941E+06 7.38151E+04 1.65148E+06
 -1        49-4.25070E+06-8.70295E+05-9.28322E+05-1.77358E+06 1.25742E+05-1.87216E+06
 -1        50 4.13435E+06 1.21339E+06-6.16338E+05 1.97770E+06 2.73494E+05 1.81459E+06
 -1        51 2.24455E+06-1.39109E+07 1.57009E+07 2.95590E+06 6.67995E+05 1.92176E+06
 -1        52-4.55040E+06-1.35377E+07 1.56879E+07-5.89075E+05 3.94209E+05-1.66282E+06
 -1        53-7.39286E+05-4.44903E+06 4.52701E+06-3.07333E+06 9.88131E+04 3.50432E+06
 -1        54 6.08210E+05 2.10854E+05-1.33790E+06-1.91773E+04 2.63819E+05-4.88297E+05
 -1        55 1.21320E+06 5.19923E+05 5.19930E+05-7.33098E+06-4.62132E+00-4.09492E+06
 -1        56-4.40884E+06-1.88954E+06-1.88952E+06-2.84388E+06 4.99821E+00 2.71747E+05
 -1        57-1.66558E+06-7.13821E+05-7.13823E+05 4.73523E+06-3.40821E+00-8.42483E+05
 -1        58-1.50608E+05-2.30971E+05 1.76224E+05 4.43972E+06 6.22442E+05-3.39612E+06
 -1        59-6.21107E+05-3.09605E+04-1.03425E+06 4.07105E+06-9.31214E+05-4.75590E+06
 -1        60 2.60631E+06 3.27279E+06-8.20498E+05 3.29058E+06 3.81184E+05-9.57922E+05
 -1        61-1.95321E+06-1.01186E+07 2.47695E+06-1.20610E+06-1.67306E+05 7.19609E+05
 -1        62-2.63549E+06-1.93521E+07 7.01076E+06 1.13228E+06-6.11196E+05-1.10519E+05
 -1        63 5.82025E+05-1.06837E+07 3.12266E+06 3.43379E+06-1.07788E+06 1.17265E+06
 -1        64 1.47189E+06-1.89419E+05 1.04400E+04-6.23915E+06 1.49004E+05-6.76909E+06
 -1        65-8.65478E+05 2.26680E+06 1.33889E+06-4.93217E+06 1.76739E+06-4.73928E+06
 -1        66-1.23830E+06 2.20383E+06-4.31253E+06-1.97392E+06-2.29818E+05-1.91315E+06
 -1        67 1.11109E+06 4.76160E+05 4.76168E+05-2.23988E+06 4.99745E+00 1.90913E+06
 -1        68-7.47472E+06-3.20348E+06-3.20347E+06 1.28559E+06-7.98302E-01 6.08468E+05
 -1        69-1.43114E+06-6.13358E+05-6.13358E+05 7.32010E+06-3.16141E+00 5.03889E+06
 -1        70 4.85901E+05 2.51541E+06 2.46803E+06 6.08162E+06 5.77369E+05 6.50205E+06
 -1        71-8.03291E+04 8.67335E+05 3.95890E+05 3.46665E+06-5.62781E+05 3.59993E+06
 -1        72-1.23392E+06 2.98227E+06-2.26885E+06 7.26905E+05 1.51474E+04 2.22009E+06
 -1        73-4.17121E+06-1.14771E+07 1.57622E+05-1.02639E+06-9.05736E+05-1.87409E+06
 -1        74-4.36812E+06-3.17373E+07 2.36102E+06-2.70025E+05-9.58154E+05-6.54370E+05
 -1        75-2.95477E+06-1.21753E+07 1.80387E+06 1.47486E+06 1.84861E+06 5.21074E+04
 -1        76 1.08848E+06 2.24634E+06 7.34767E+05-3.64267E+06-8.57527E+05 2.25972E+06
 -1        77 2.23723E+06 3.09615E+06 4.38950E+05-4.50611E+06 3.63721E+05 3.31908E+06
 -1        78 1.87685E+06 2.27659E+06-9.93684E+05-1.85008E+06-1.10869E+06 3.06470E+06
 -1        79-2.74842E+05-5.87734E+05 1.43849E+07-5.62505E+05-1.72061E+06 1.91318E+06
 -1        80 3.75478E+06-2.88312E+06 3.08878E+07 1.23343E+05 1.30878E+06-8.73608E+05
 -1        81 3.12158E+06-1.24610E+06 1.12679E+07-1.47412E+06 1.78953E+05-5.51084E+05
 -1        82-2.61516E+06-1.12080E+06-1.12079E+06 5.99006E+06-3.16141E+00 8.45081E+06
 -1        83 8.00705E+06 3.43162E+06 3.43166E+06 9.95853E+05 4.37327E+00 2.38596E+06
 -1        84-1.37190E+06-5.87954E+05-5.87956E+05 2.93012E+06-3.40821E+00-2.11028E+06
 -1        85 4.24342E+06-1.54867E+06 8.14147E+06 1.93675E+06 1.39454E+06 2.21554E+06
 -1        86 4.22247E+06-4.42649E+06 2.04809E+07 1.63998E+06-4.24842E+05-3.25416E+05
 -1        87 9.00898E+05-3.22111E+06 1.02021E+07-1.11924E+05-2.39796E+06-3.28815E+06
 -1        88 4.58620E+05 1.10553E+06 4.69251E+05-2.32947E+06-2.02222E+05 4.41854E+06
 -1        89 8.10253E+06 3.47253E+06 3.47257E+06-1.04363E+06-5.49024E+00-2.48187E+06
 -1        90 1.77355E+06-6.74110E+05 3.29832E+05-5.11671E+06-2.05168E+05-7.13427E+06
 -1        91-1.52924E+06 3.23690E+06 9.86005E+05-6.85545E+06 5.63889E+05-4.48098E+06
 -1        92-1.62798E+06 6.15183E+06 2.36831E+06-6.26703E+06 1.87228E+05-2.81910E+06
 -1        93-5.04837E+06 3.47468E+06 7.86304E+05-4.87578E+06-3.44159E+04-1.19636E+06
 -1        94-7.79295E+06 5.58778E+06 1.33099E+06-1.90116E+06-8.50794E+05-5.45871E+05
 -1        95-1.54832E+06 1.82303E+06 2.15296E+06 4.76875E+06 1.04602E+06-1.30729E+06
 -1        96-1.00943E+07 5.14510E+06-1.43934E+06 6.50523E+06 4.07642E+05-1.42002E+06
 -1        97-1.07583E+07 4.85101E+06-1.67578E+06 5.46734E+06 4.43990E+04-1.98713E+06
 -1        98-3.83568E+06-8.36875E+06 4.15804E+06 3.41663E+06-4.50566E+05-1.26648E+06
 -1        99-6.75171E+06-8.44271E+06-3.71084E+05-1.59838E+06 3.51022E+05-1.21768E+06
 -1       100-1.12121E+07-3.16392E+06 4.59457E+06-1.89539E+05 3.60477E+05-5.55144E+05
 -1       101-1.02455E+07-5.70433E+05 4.99289E+06-3.34281E+06 1.09333E+06-8.44606E+05
 -1       102-1.05804E+07 3.81858E+06-8.25684E+05-3.07988E+06 7.19156E+05-1.57825E+06
 -1       103-1.38570E+07 4.59618E+06 2.24495E+04-4.39532E+06-1.12751E+05 6.01844E+05
 -1       104-8.41614E+06 8.52114E+06 3.49984E+06 4.48578E+06-1.51065E+05-1.07142E+06
 -1       105-1.34340E+07-3.05071E+06 2.31373E+06 6.35742E+06-6.38840E+05-1.89994E+06
 -1       106-1.69915E+07 6.24014E+06 1.88900E+06-5.08355E+06 4.80191E+05 2.40934E+05
 -1       107-1.80532E+07 9.08445E+06 1.93597E+05 2.76028E+06-2.25120E+05-9.25298E+05
 -1       108-1.60659E+07 1.15478E+07 1.76363E+06-6.00655E+05 7.69643E+05-2.02130E+06
 -1       109-5.64449E+06 1.98334E+06 2.91399E+05-5.12797E+06-1.26342E+06 1.94664E+06
 -1       110-9.33496E+06-3.12413E+05-1.45739E+06-3.43988E+06-6.89641E+05 1.03542E+06
 -1       111-1.08804E+07 2.64894E+06-1.08518E+06-6.63113E+05 1.81368E+04 1.80230E+06
 -1       112-1.37718E+06 3.77425E+06 1.30542E+06 5.57486E+06 1.62331E+04 2.14475E+06
 -1       113-1.25428E+07 2.96131E+06-1.00349E+06 2.93182E+06 5.17079E+05 1.71449E+06
 -1       114-9.65466E+06 4.98686E+06-2.33406E+05 4.92709E+06 5.37016E+04 4.99304E+05
 -1       115-3.88360E+06-8.98804E+06 7.59504E+05 1.71299E+06 1.97028E+06 1.01611E+06
 -1       116-1.92466E+06-8.16821E+06-2.27637E+05-4.11752E+06-1.40825E+06 4.79563E+05
 -1       117-7.60747E+06-8.46658E+06 1.61300E+06-7.11265E+06-1.15964E+05 9.22017E+04
 -1       118-1.04395E+07-1.08638E+07 3.18803E+06-3.48639E+06 8.37020E+05 9.97238E+05
 -1       119-6.51619E+06 7.14251E+05 1.15839E+06-7.04184E+06 1.39325E+05 2.97287E+06
 -1       120-9.19677E+06 1.40676E+06 2.75300E+05-7.38020E+06 1.00953E+06 4.21649E+04
 -1       121-4.22060E+06 2.28122E+06-1.79000E+03-6.02393E+06 5.11649E+05 4.62157E+05
 -1       122-1.34608E+07 3.52297E+06-1.06411E+06 5.42914E+06 4.07913E+05 5.68805E+05
 -1       123-1.48404E+07-7.06028E+06 2.00410E+06 1.96462E+06 6.03717E+05 3.53465E+05
 -1       124-1.89019E+07 3.54914E+06-4.62152E+05-7.13249E+06 9.06804E+05 1.09666E+06
 -1       125-1.58991E+07 1.07578E+07 5.60164E+05-9.70059E+05 5.79168E+05 1.45963E+06
 -1       126-2.22969E+07 6.11596E+06 1.02868E+05-2.43122E+06 1.60248E+06 2.10681E+06
 -1       127 3.33032E+06 1.33973E+06-6.49496E+04 2.37720E+06 5.90570E+05 7.37598E+06
 -1       128 1.18078E+07 1.08756E+06-3.43753E+06 1.71016E+06-1.34534E+05 5.29451E+06
 -1       129 1.10011E+07 1.43768E+06-3.21735E+06 2.70954E+06 5.58530E+05 3.13536E+06
 -1       130 4.49981E+06-8.27303E+04 1.09292E+07 1.11041E+06 2.69042E+04 2.00944E+06
 -1       131 9.90950E+06-1.85899E+06 1.52529E+07 1.48978E+06 3.42941E+05-2.45279E+06
 -1       132 7.39081E+06-2.43557E+06 1.36559E+07 2.31429E+05 1.03109E+05-4.03044E+06
 -1       133 2.19569E+06 2.02370E+04 8.59044E+06-5.14065E+04-1.67633E+05-3.48791E+06
 -1       134 1.75422E+06 9.45087E+05-5.02539E+03 2.00282E+06 4.90938E+05-3.57426E+06
 -1       135 8.94252E+06 2.08925E+06-4.78009E+06 3.20603E+06 3.49283E+05-5.77450E+06
 -1       136 9.52795E+06 1.88689E+06-3.61320E+06 1.15702E+06 6.40614E+04-6.67410E+06
 -1       137 1.15696E+07 8.54783E+05-3.54560E+06 3.08657E+05 2.45366E+05-3.33799E+06
 -1       138 1.43888E+07 5.15308E+05-5.56685E+06 5.38675E+05 3.73811E+05 1.48261E+06
 -1       139 1.33010E+07-1.30101E+06 7.28828E+06 1.18584E+06 4.97796E+05 1.99389E+06
 -1       140 8.71423E+06 3.24347E+05 2.35362E+06 3.37822E+06 1.67908E+05-6.00913E+06
 -1       141 1.13763E+07-2.56084E+06-4.42682E+06 1.64304E+06-9.57779E+05 7.03409E+06
 -1       142 1.60464E+07 1.27769E+06-7.60365E+06 1.65228E+06 6.69495E+05-1.46336E+06
 -1       143 1.84621E+07 1.75417E+06-6.64907E+05 3.75835E+06 2.54072E+05-6.31983E+06
 -1       144 1.93310E+07 4.10851E+05-2.79363E+06 2.50664E+06-1.05499E+05-7.92935E+05
 -1       145 2.66636E+06 1.15699E+05-3.91733E+06-1.17678E+06-4.61066E+05 5.49092E+06
 -1       146 8.49859E+06 9.23587E+05-4.22738E+06-2.25784E+06 1.06949E+06 5.51653E+06
 -1       147 7.96712E+06 1.35871E+06-5.10700E+06-2.26557E+06 6.33335E+05 6.61321E+06
 -1       148 5.89344E+06-1.88058E+06 5.53790E+06 3.32128E+04-2.07971E+04 4.50165E+06
 -1       149 1.12462E+07-3.71654E+06 7.31530E+06 2.89958E+05-4.82292E+05-7.23524E+05
 -1       150 1.22085E+07-3.07071E+06 4.99075E+06 8.32221E+05 7.08271E+05 4.38389E+06
 -1       151 1.74687E+06-3.50211E+06 5.89859E+06-7.90109E+05-1.31634E+05-3.41182E+06
 -1       152 3.20892E+06 6.58035E+05 6.53902E+05-2.94317E+06-5.16620E+05-7.06218E+06
 -1       153 8.84501E+06 2.23371E+06-3.85273E+06-2.48561E+06 9.04179E+05-6.46881E+06
 -1       154 1.45843E+07 3.19212E+06-5.40079E+06-1.90426E+06 7.98755E+05-6.13026E+06
 -1       155 9.08392E+06 6.72142E+05-4.80038E+06-1.95638E+06-1.18090E+05-6.03160E+06
 -1       156 1.06597E+07 7.54586E+04-6.90157E+06-1.16350E+06 1.39052E+05-9.11589E+05
 -1       157 1.27542E+07 3.25573E+05-2.29199E+06-1.45124E+05 1.17893E+06 7.40250E+06
 -1       158 1.22799E+07 3.40078E+05-3.58615E+06-2.67297E+06-6.58582E+04-2.87899E+06
 -1       159 8.94607E+06 6.90190E+05-2.53290E+06-1.67236E+06 1.56145E+06 4.59419E+06
 -1       160 1.59256E+07 2.69320E+06-7.83966E+06-2.06202E+06 9.34512E+05 6.36409E+05
 -1       161 1.80430E+07-8.63975E+05-5.30309E+06-9.60260E+05 1.29145E+06 5.34611E+06
 -1       162 2.12636E+07-1.71745E+05-8.09811E+06-1.08419E+06 1.38741E+06-1.05628E+06
 -1       163 3.33825E+06-1.31430E+07 1.04488E+07-6.87230E+05 4.95759E+05-7.69324E+05
 -1       164 3.76947E+06-2.21120E+07 2.88712E+07-8.17236E+04 1.41610E+06 3.98064E+05
 -1       165-3.45304E+05-2.26496E+07 3.39318E+07 1.16689E+06 1.39158E+06 6.23595E+03
 -1       166-2.22383E+06-1.53496E+07 1.48598E+07 7.15472E+05-1.16685E+06-1.09633E+06
 -1       167-7.91676E+05-3.08637E+07 2.02597E+07 5.32325E+05-1.36379E+05-6.67624E+04
 -1       168-7.31165E+05-3.41891E+07 2.21029E+07 2.65744E+05-4.26214E+05-9.42018E+04
 -1       169-1.06543E+06-1.47461E+07 1.56356E+07-6.49941E+05-8.06599E+05-3.69589E+05
 -1       170-2.40098E+04-1.64989E+07 1.83625E+07 3.47269E+05 1.08578E+06 8.97778E+05
 -1       171 6.71050E+05-1.84909E+07 3.55259E+07-8.60374E+05 2.39268E+06 9.51243E+05
 -1       172 7.78060E+05-1.95321E+07 4.02605E+07 4.07148E+05 6.71396E+05 6.91676E+05
 -1       173-2.61974E+06-3.70656E+07 2.81613E+07 3.90855E+05 1.35808E+06 9.23586E+05
 -1       174-2.44620E+06-4.09581E+07 2.08406E+07 7.88910E+05-3.78513E+05 1.54557E+05
 -1       175-2.48087E+06-3.46187E+07 1.82866E+07-4.13577E+05-8.94074E+05-7.95692E+05
 -1       176 1.11676E+06-2.23378E+07 3.00416E+07 1.07954E+06-3.69194E+05-6.36742E+05
 -1       177-1.11844E+06-4.41867E+07 3.98239E+07-8.31440E+05-1.97883E+05 1.81175E+06
 -1       178-2.46399E+06-2.82826E+07 2.80355E+07 9.44810E+05-6.87367E+04-5.43262E+05
 -1       179-2.41218E+06-4.57119E+07 3.92626E+07 6.41364E+05-6.78212E+05-4.25995E+05
 -1       180-2.45575E+06-4.43245E+07 4.29180E+07 1.39010E+05 3.38078E+05 4.24795E+05
 -1       181-9.92941E+05-4.25561E+05-4.25558E+05-1.61203E+06 6.06339E+00 2.36138E+06
 -1       182 3.92272E+06 1.68118E+06 1.68121E+06-1.55894E+06-7.88404E+00-2.07385E+06
 -1       183 1.07576E+06 4.74438E+04-5.68048E+05-1.58915E+06 3.61092E+05 2.54915E+06
 -1       184 7.15886E+05 3.06787E+05 3.06798E+05-5.35576E+06-3.66832E+00-4.42879E+06
 -1       185-2.90252E+06-1.24397E+06-1.24396E+06-3.83533E+06 1.88446E-01-1.11038E+06
 -1       186-5.47246E+06-1.71964E+06-1.46034E+06-5.05000E+05-3.93139E+05-7.34883E+05
 -1       187-3.30545E+06-1.51350E+06-7.09410E+05 3.59276E+06 1.40578E+05-1.22449E+06
 -1       188 1.88742E+06 1.08951E+06 9.33477E+05 4.73353E+06-1.16189E+05 6.08222E+06
 -1       189 7.02795E+06 1.30186E+06 6.70351E+05 2.37290E+06-1.07234E+06 4.73184E+06
 -1       190 3.38457E+06 1.45055E+06 1.45058E+06 1.83079E+06-1.92177E+00 2.60926E+05
 -1       191-1.12661E+06-6.44995E+05-6.00596E+05 3.58421E+06 4.88404E+05 3.19665E+06
 -1       192-2.91640E+06-1.24990E+06-1.24990E+06-1.00579E+06 3.16552E+00 9.71056E+05
 -1       193 8.37367E+05 5.00892E+05 5.31721E+05-2.78956E+06-2.03344E+05-4.29022E+06
 -1       194-3.12387E+06 1.83899E+05-8.84332E+05 2.02954E+06-1.52897E+03-3.81788E+05
 -1       195-5.29626E+06-2.26986E+06-2.26984E+06 1.08131E+06-6.31853E-01 1.46207E+06
 -1       196 1.06846E+06 2.95352E+05-4.32726E+05 5.61147E+05 6.93083E+04 1.63602E+06
 -1       197-2.48035E+06-3.11072E+05-8.37790E+05-1.26634E+06-4.94168E+03-5.10671E+05
 -1       198 3.71573E+05 1.59230E+05 1.59253E+05 1.67247E+05-3.10886E+00-7.63468E+05
 -1       199-2.45575E+06-5.47281E+06 5.35872E+06-2.84453E+06 5.79384E+05-2.17779E+06
 -1       200-2.97395E+06-1.59149E+07 1.26073E+07-1.42214E+06 2.68011E+05-1.66668E+05
 -1       201-1.05107E+07-1.12413E+06 7.81142E+06-3.58198E+06 1.31566E+06-3.91401E+05
 -1       202 1.09791E+06-1.19627E+07 2.02697E+07-6.62013E+05 4.41180E+05-1.95735E+06
 -1       203 3.06462E+05-2.99182E+07 2.64065E+07-7.82037E+05 4.96751E+04-1.01346E+06
 -1       204-6.64962E+06-1.92493E+07 1.60347E+07-4.50200E+06-5.33299E+04 1.34118E+06
 -1       205-4.44527E+05-3.81427E+06 9.41132E+06-4.07617E+06 4.69876E+05 1.46462E+06
 -1       206 3.86028E+06-1.05458E+07 2.21710E+07 1.18489E+06-1.35920E+05 8.32455E+05
 -1       207-2.69935E+06-2.16605E+07 1.22841E+07 2.09807E+06 9.45352E+05 8.58608E+05
 -1       208-9.69321E+05-2.68747E+07 3.03401E+07 1.90016E+06 1.07941E+06-3.05219E+05
 -1       209-3.99451E+06-5.35706E+06 5.05302E+06 6.55273E+04 2.35325E+05-2.28929E+06
 -1       210-1.03854E+06-1.44033E+07 1.72002E+07 2.38509E+06 8.34108E+05-1.46548E+05
 -1       211 1.44126E+06-5.10922E+06 2.17295E+06 2.43161E+06 6.10857E+05-3.99870E+06
 -1       212 1.39318E+06-5.86410E+06 5.51417E+06 3.23324E+06 8.17386E+05 2.22340E+06
 -1       213 5.46526E+06 1.26491E+06-3.44881E+06 2.00243E+06 9.74647E+05-2.58710E+06
 -1       214 8.73686E+06-4.99105E+06 2.85614E+06 2.14399E+06 9.27734E+05-1.34639E+06
 -1       215 4.98925E+05-1.57407E+06 2.06083E+06-2.46452E+06 4.90948E+05 1.78403E+06
 -1       216 8.10533E+06 5.97376E+05-6.26802E+06-1.42080E+06 3.10593E+05-3.00922E+06
 -1       217-2.92614E+06-9.39078E+06 9.90907E+06-2.66338E+06 2.60007E+05 7.45759E+05
 -1       218 5.25649E+06-3.76512E+06 1.45229E+06-1.93926E+06 9.98943E+05-3.54969E+06
 -1       219 9.39748E+06-3.95801E+05-3.48288E+06-1.62266E+06 1.30970E+06-5.13806E+05
 -1       220 6.72490E+05-8.72886E+06 1.04379E+07-6.99217E+03 7.57084E+05 3.37271E+06
 -1       221 5.26571E+06-6.08637E+05-2.16633E+06 2.44208E+06-4.63574E+05 2.22776E+06
 -1       222 9.91146E+06-5.26078E+06 3.01528E+06 1.86167E+06-3.57756E+05 2.19676E+06
 -1       223-2.84026E+06 3.09800E+06 8.04852E+05 3.84874E+06 7.06007E+05 4.88093E+06
 -1       224 4.52863E+05 1.38102E+06-1.39998E+06 2.94640E+06 3.86103E+05 3.21314E+06
 -1       225-7.46203E+06-4.07841E+06 5.99365E+06 2.58108E+06 5.71870E+05 1.76788E+06
 -1       226 1.93778E+06-3.97817E+06 6.16181E+06 2.73278E+06 1.11822E+05 2.22019E+06
 -1       227 1.32520E+06 1.34073E+06-3.01440E+06-3.25870E+06 5.92742E+05 3.33782E+06
 -1       228-6.50866E+06 3.24107E+06 9.69618E+05 1.60884E+06 4.13525E+05 1.94377E+06
 -1       229-1.05173E+07 1.99298E+06 2.27248E+06-8.53914E+05 5.34085E+05 2.03119E+06
 -1       230-9.59213E+06-3.36636E+06 2.91888E+06-5.01482E+06 1.00240E+05 2.99437E+06
 -1       231-6.67631E+06 1.56530E+06 1.01395E+06-4.03119E+06 1.83715E+05 1.93974E+06
 -1       232 9.46865E+06-9.01813E+06 1.03234E+07 1.53773E+06 3.72202E+05-1.69858E+06
 -1       233-2.92115E+06-4.90765E+05-3.49101E+06-5.07511E+06 7.02152E+05 4.18926E+06
 -1       234 3.61844E+06-1.05656E+06 2.13292E+06-3.63462E+06 1.04482E+06 4.15524E+06
 -1       235 6.05811E+06-1.18915E+06-1.08297E+06-2.96713E+06 7.32334E+05 3.55720E+06
 -1       236 9.13104E+06-5.13783E+06 1.38394E+06-9.02872E+05 8.94451E+05 4.05681E+06
 -1       237-1.03466E+06-2.83577E+07 2.64210E+07 1.58186E+06 2.06867E+05 1.28712E+06
 -1       238-8.29221E+06-6.30484E+06 8.45055E+06-1.79886E+06 1.27615E+06 1.73136E+06
 -1       239 5.32439E+06 9.01087E+05-2.08407E+06-1.73549E+06 1.06069E+06 3.60215E+06
 -1       240 7.15292E+06 7.50676E+05-4.98013E+06-1.73577E+06 5.91099E+05-9.51549E+05
 -1       241 3.16605E+06-1.22465E+07 1.07768E+07 1.45563E+06-2.73550E+05-2.85783E+06
 -1       242 4.82158E+06-1.65029E+07 2.43991E+07 6.26498E+05 1.50569E+06-2.33712E+06
 -1       243 3.18541E+06-9.41394E+06 1.13856E+07 2.02588E+06 1.30068E+04-3.56391E+06
 -1       244-3.70581E+06-1.66430E+07 1.33678E+07 1.99976E+06-2.67387E+05-2.70574E+05
 -1       245-1.30392E+06-2.58154E+07 3.09551E+07 1.97489E+06 1.17949E+05-1.87672E+06
 -1       246-4.92987E+06 3.49284E+06 1.05466E+06-3.20142E+06 2.05693E+05-1.77199E+06
 -1       247-4.87279E+06 3.78253E+06-5.44029E+05-2.92986E+06 9.49418E+05-2.13999E+06
 -1       248-1.89761E+06 8.48691E+05-2.37866E+06-6.88102E+05 4.68293E+05-1.47647E+06
 -1       249-3.39055E+06 2.49906E+06-8.03742E+05 5.67559E+05 1.16737E+05-1.17494E+06
 -1       250-9.16960E+04 4.01325E+06 1.41504E+06-4.17411E+06-6.93336E+04-4.44655E+06
 -1       251-1.58769E+06-2.87306E+07 2.83755E+07-1.51225E+06 3.02504E+05-7.98718E+05
 -1       252-1.80858E+06-2.16904E+07 1.81201E+07-2.51829E+06-2.53167E+05 3.07416E+06
 -1       253 7.04182E+06 3.56584E+05-1.42455E+06-2.56289E+06 7.53996E+05 2.40304E+06
 -1       254-4.29783E+06 3.40939E+06-2.91863E+05-2.29505E+06 2.03525E+05 1.73632E+06
 -1       255-1.30910E+06 4.31493E+06-3.08911E+06 4.19994E+06 8.45370E+05-3.65098E+06
 -1       256-6.13879E+05 3.54743E+06-3.22756E+06-1.66824E+06 3.35257E+05-2.50869E+06
 -1       257 2.14377E+06 2.59170E+06-9.75709E+05 8.49190E+05 2.29312E+05 5.59805E+05
 -1       258 7.68605E+05 1.21791E+06-6.24155E+05-7.93611E+05-3.04198E+05 8.11795E+05
 -1       259 4.13265E+06 1.03806E+06-3.95678E+06-2.64316E+06 7.90813E+05-3.47865E+06
 -1       260 3.63685E+06 1.52903E+06-1.89533E+06 2.68420E+06 4.32346E+05-2.92009E+06
 -1       261-6.75989E+06 4.38967E+06-1.34166E+04 3.28082E+06 4.95957E+05-2.40464E+06
 -1       262 2.40064E+06 4.32708E+06-3.16766E+06-3.81463E+06 4.90603E+05-4.11581E+06
 -1       263 5.27073E+06-1.00726E+07 6.85159E+06-1.97705E+06 3.62685E+05-6.05304E+05
 -1       264 5.02828E+06-1.89030E+07 1.64867E+07-1.17037E+06 7.90121E+05 2.74166E+06
 -1       265-3.79241E+06 3.94352E+06 4.39093E+05 3.06182E+06 9.66335E+05 2.59457E+06
 -1       266-3.65455E+06 3.65144E+06-7.58280E+05-3.28589E+05 8.37285E+05 2.25886E+06
 -1       267 7.73630E+06-7.68110E+05-4.84586E+06 2.57446E+06-7.31586E+04 2.75584E+06
 -1       268 9.97586E+06 9.58984E+05-4.27768E+06 1.53543E+06 8.09632E+05-1.25458E+06
 -1       269-4.94445E+06-5.88497E+06 5.36660E+06 2.84830E+06 3.04030E+05-2.16723E+06
 -1       270-5.55977E+06 1.45103E+06-6.89115E+05-2.57994E+06-3.33234E+04 1.99879E+06
 -1       271-8.59061E+06-2.81466E+05-5.91487E+05-1.57991E+06 6.01244E+05-1.15291E+06
 -1       272-3.86066E+06 4.18888E+05-2.56874E+05-4.22119E+06-7.09888E+05 2.81853E+06
 -1       273-1.03162E+07-6.59015E+05 5.30952E+06 4.95884E+06-1.22266E+04-1.76149E+06
 -3
    1PSTEP                        24           1           1          
    1PGM                1.000000E+00                                  
    1PGK                1.735020E+12                                  
    1PHID                         -1                                  
    1PSUBC                         0                                  
    1PMODE                         8                                  
  100CL  108 2.09639E+05         273                     2    8MODAL      1
 -4  TOSTRAIN    6    1
 -5  EXX         1    4    1    1
 -5  EYY         1    4    2    2
 -5  EZZ         1    4    3    3
 -5  EXY         1    4    1    2
 -5  EYZ         1    4    2    3
 -5  EZX         1    4    3    1
 -1         1-1.60132E+01 1.12015E+01 2.85489E+00 5.38323E-01-5.84246E+00 9.09312E+00
 -1         2 1.26208E+01 6.58543E-01-2.51212E+00 1.18394E+01 2.38573E+00 1.15156E+01
 -1         3-4.65827E+00 2.80350E+00 1.28690E-01 7.18725E+00-8.30163E-02 6.66577E+00
 -1         4 7.61455E+00 3.83232E+00-9.17294E+00-7.42067E+00-7.54058E+00-4.53468E+00
 -1         5-1.09666E+01-4.46047E-05-4.29182E-05 5.19901E+01-2.05492E-05 5.10351E+01
 -1         6-6.80147E+00 6.53386E-06-7.95866E-06 3.01495E+01-2.21534E-05-1.29945E+01
 -1         7-1.29076E+01 1.09609E+01 2.46895E+00-1.58362E+01-1.04947E+01 2.49642E+01
 -1         8 1.00535E+01-4.12636E+00-9.55318E-06-5.18195E+01-6.67671E-01-4.73108E+01
 -1         9-8.93360E+00-1.30135E-04-3.44524E-05-3.77685E+01 1.22490E-06-5.04728E+00
 -1        10-3.48125E+01 1.31679E+01 1.07697E+01 1.91011E+01-1.81400E+00-3.57364E-01
 -1        11-2.23801E-01 9.33147E+00-3.78958E+00 2.38577E+01 5.47843E+00-2.66738E+01
 -1        12-3.49921E+00 1.73848E+01-1.51983E+01 2.46242E+01 9.66971E-01-2.32619E+01
 -1        13-1.04956E+01-9.53062E+01 7.29296E+01-2.57385E+00-1.76663E+00 2.12701E+00
 -1        14-7.97549E+00-1.12549E+02 9.04635E+01 1.52553E+01-6.23119E+00 1.52646E+00
 -1        15-2.43851E+00 1.17150E+01 2.11610E-01-3.36039E+01 2.65125E+00-3.00315E+01
 -1        16 3.56801E+00 1.77377E+01-2.88935E+01-1.80621E+01 3.44199E+00-2.41231E+01
 -1        17-1.89237E+01-8.00879E-05-3.93368E-05-5.20981E+00 2.45451E-05 7.63420E-01
 -1        18-2.93642E+01 6.55638E+00 1.50350E+00 3.18992E+01-1.55702E+00 1.13916E+01
 -1        19 4.33728E-01 1.83762E+01-6.46138E+00 2.15556E+01 1.30115E+00 2.21969E+01
 -1        20 1.37468E+00 2.20921E+01-1.97291E+01 1.87041E+01 4.39536E+00 1.66865E+01
 -1        21 6.85683E+00-1.08506E+02 5.20515E+01-1.95302E+01-7.38326E+00-1.87014E+01
 -1        22 6.16185E+00-1.48182E+02 8.56199E+01 6.34194E+00 1.00575E+01-1.08798E+00
 -1        23 1.49155E+01 7.81254E+00-9.64539E+00-2.95128E+01 6.69690E+00 1.42527E+01
 -1        24 1.03135E+01 1.45651E+01-1.80795E+01-2.38618E+01-4.35844E+00 3.72649E+01
 -1        25-8.23098E+00-7.56287E+01 1.43616E+02 1.16432E+00-2.26763E+00 5.08954E+00
 -1        26-1.11347E+01-6.26534E+01 1.12594E+02-1.81379E+01 4.37076E-01-1.05475E+01
 -1        27 3.91119E+01-1.36301E+01-8.94497E+00 1.30622E+01-4.89996E+00 5.80385E+01
 -1        28 1.26974E+01-1.28280E+00-3.02576E+00 7.73134E+00-2.10614E+00-1.21465E+01
 -1        29 3.32574E+01-7.01609E+01 7.89260E+01 1.39561E+01 8.45216E+00 1.18574E+01
 -1        30 1.08339E-02-7.66464E+01 1.14982E+02 1.41593E+01-3.27206E+00-1.63104E+01
 -1        31 1.76790E+01-1.46091E+00-6.53978E+00-1.14081E+01 4.02790E+00 2.28026E+01
 -1        32 2.03784E+01-3.43542E+00-3.43422E+00-1.27909E+01-3.98799E+00-4.40612E+01
 -1        33-5.75263E+01 4.97616E+01 1.16365E+01-3.68028E+01 3.80453E+00-1.04634E+01
 -1        34-9.41701E+01 7.34423E+01 8.37771E+00 4.71895E+01 2.56609E+00-1.16102E+01
 -1        35-1.08174E+02 6.06401E+01 2.77270E+01-2.38975E+01 4.37287E+00 4.60363E+00
 -1        36-6.50478E+01 4.17657E+01 7.36278E+00-3.27344E+01-9.59604E-01 8.55777E+00
 -1        37-1.00792E+02 5.94291E+01 1.97935E+01 2.15748E+01 5.87171E+00 7.08212E+00
 -1        38-8.50381E+01 2.72987E+01 3.11311E+01-5.65954E+01 3.37412E+00 1.02458E+01
 -1        39 9.23651E+01-1.60839E+01-5.56521E+01 1.37551E+01-6.26702E-01 2.48131E+01
 -1        40 6.82704E+01-3.88014E+01 7.67985E+00 1.47592E+01 1.05737E+00-3.74554E+01
 -1        41 8.57079E+01-3.11102E+00-6.33161E+01 9.93869E+00 7.23911E+00-3.66699E+01
 -1        42 7.34270E+01-6.01804E+00-5.18600E+01-1.17818E+01 9.05343E+00 3.78092E+01
 -1        43 9.86752E+01-3.34261E+01-3.79079E+01-1.57386E+00 7.14335E+00 2.48296E+01
 -1        44 9.65675E+01 1.13644E+00-7.95832E+01-8.48886E+00 6.20501E+00-3.47647E+01
 -1        45-4.79049E+00-2.58823E+02 2.49178E+02-4.81116E+00 8.88958E-01 7.36977E+00
 -1        46 1.51661E+01-2.72671E+02 2.36569E+02-1.81407E+00-4.22093E+00 2.32470E+00
 -1        47-2.43294E+01-2.46944E+02 2.81745E+02 4.17734E+00 9.52737E+00-2.48911E+00
 -1        48-4.21609E+00 1.84666E+00-6.45619E-03-7.47116E+00 4.79798E-01 1.07346E+01
 -1        49-1.85556E+01 3.41705E+00 3.03988E+00-1.15283E+01 8.17321E-01-1.21691E+01
 -1        50 1.97762E+01 7.89916E-01-1.11033E+01 1.28550E+01 1.77771E+00 1.17948E+01
 -1        51 8.53785E+00-9.64727E+01 9.60039E+01 1.92134E+01 4.34197E+00 1.24915E+01
 -1        52-2.59773E+01-8.43946E+01 1.05572E+02-3.82899E+00 2.56236E+00-1.08083E+01
 -1        53-3.81340E+00-2.79267E+01 3.04175E+01-1.99767E+01 6.42285E-01 2.27781E+01
 -1        54 4.73162E+00 2.14880E+00-7.91809E+00-1.24653E-01 1.71482E+00-3.17393E+00
 -1        55 4.50624E+00-8.83694E-05-4.00484E-05-4.76513E+01-3.00386E-05-2.66170E+01
 -1        56-1.63756E+01-1.71900E-04-2.88564E-05-1.84852E+01 3.24884E-05 1.76636E+00
 -1        57-6.18646E+00 6.53386E-06-7.95866E-06 3.07790E+01-2.21534E-05-5.47614E+00
 -1        58-6.70922E-01-1.19328E+00 1.45349E+00 2.88581E+01 4.04587E+00-2.20748E+01
 -1        59-1.50771E+00 2.32824E+00-4.19316E+00 2.64618E+01-6.05289E+00-3.09133E+01
 -1        60 9.35313E+00 1.36852E+01-1.29211E+01 2.13888E+01 2.47769E+00-6.22649E+00
 -1        61 1.69648E+00-5.13788E+01 3.04925E+01-7.83967E+00-1.08749E+00 4.67746E+00
 -1        62 5.33449E+00-1.03323E+02 6.80351E+01 7.35979E+00-3.97277E+00-7.18371E-01
 -1        63 1.42517E+01-5.89754E+01 3.07658E+01 2.23196E+01-7.00624E+00 7.62220E+00
 -1        64 7.62791E+00-3.17059E+00-1.87150E+00-4.05545E+01 9.68528E-01-4.39991E+01
 -1        65-9.73593E+00 1.06239E+01 4.59246E+00-3.20591E+01 1.14880E+01-3.08053E+01
 -1        66-3.02847E+00 1.93454E+01-2.30110E+01-1.28305E+01-1.49382E+00-1.24355E+01
 -1        67 4.12693E+00-8.18101E-05-2.66070E-05-1.45592E+01 3.24834E-05 1.24093E+01
 -1        68-2.77632E+01-1.24737E-04-4.20069E-05 8.35633E+00-5.18897E-06 3.95504E+00
 -1        69-5.31562E+00-4.46047E-05-4.29182E-05 4.75806E+01-2.05492E-05 3.27528E+01
 -1        70-5.04565E+00 8.14617E+00 7.83817E+00 3.95305E+01 3.75290E+00 4.22633E+01
 -1        71-2.29648E+00 3.86334E+00 7.98939E-01 2.25332E+01-3.65808E+00 2.33995E+01
 -1        72-7.23976E+00 2.01655E+01-1.39668E+01 4.72488E+00 9.84583E-02 1.44306E+01
 -1        73-3.87679E+00-5.13653E+01 2.42606E+01-6.67151E+00-5.88728E+00-1.21816E+01
 -1        74 2.22238E+01-1.55676E+02 6.59632E+01-1.75516E+00-6.22800E+00-4.25340E+00
 -1        75 7.83252E-01-5.91500E+01 3.17144E+01 9.58656E+00 1.20160E+01 3.38698E-01
 -1        76 9.70725E-01 8.49685E+00-1.32840E+00-2.36774E+01-5.57393E+00 1.46882E+01
 -1        77 5.88351E+00 1.14665E+01-5.80533E+00-2.92897E+01 2.36418E+00 2.15740E+01
 -1        78 7.45988E+00 1.00582E+01-1.11986E+01-1.20255E+01-7.20647E+00 1.99205E+01
 -1        79-2.20700E+01-2.41038E+01 7.32184E+01-3.65629E+00-1.11840E+01 1.24356E+01
 -1        80-2.32331E+01-6.63794E+01 1.53131E+02 8.01732E-01 8.50710E+00-5.67845E+00
 -1        81 5.75240E-01-2.78147E+01 5.35262E+01-9.58176E+00 1.16320E+00-3.58204E+00
 -1        82-9.71341E+00-4.46047E-05-4.29182E-05 3.89354E+01-2.05492E-05 5.49303E+01
 -1        83 2.97404E+01 1.40913E-05 2.70918E-04 6.47304E+00 2.84263E-05 1.55088E+01
 -1        84-5.09561E+00 6.53386E-06-7.95866E-06 1.90458E+01-2.21534E-05-1.37168E+01
 -1        85 1.13279E+01-2.63207E+01 3.66652E+01 1.25889E+01 9.06454E+00 1.44010E+01
 -1        86-2.96922E+00-5.91875E+01 1.02710E+02 1.06599E+01-2.76147E+00-2.11520E+00
 -1        87-5.96707E+00-3.27601E+01 5.44910E+01-7.27509E-01-1.55867E+01-2.13730E+01
 -1        88-6.90732E-02 4.13584E+00 3.06358E-05-1.51415E+01-1.31444E+00 2.87205E+01
 -1        89 3.00950E+01 6.85674E-07 2.59310E-04-6.78360E+00-3.56866E-05-1.61321E+01
 -1        90 9.38415E+00-6.52562E+00 5.69445E-06-3.32586E+01-1.33359E+00-4.63727E+01
 -1        91-1.39806E+01 1.69994E+01 2.36854E+00-4.45604E+01 3.66528E+00-2.91264E+01
 -1        92-2.09201E+01 2.96486E+01 5.05578E+00-4.07357E+01 1.21698E+00-1.83241E+01
 -1        93-3.16333E+01 2.37665E+01 6.29206E+00-3.16926E+01-2.23703E-01-7.77633E+00
 -1        94-4.93429E+01 3.76318E+01 9.96272E+00-1.23575E+01-5.53016E+00-3.54816E+00
 -1        95-1.37056E+01 8.20817E+00 1.03528E+01 3.09969E+01 6.79914E+00-8.49739E+00
 -1        96-5.60302E+01 4.30260E+01 2.27132E-01 4.22840E+01 2.64967E+00-9.23015E+00
 -1        97-5.85544E+01 4.29062E+01 4.82023E-01 3.55377E+01 2.88594E-01-1.29164E+01
 -1        98-1.28623E+01-4.23273E+01 3.90968E+01 2.22081E+01-2.92868E+00-8.23211E+00
 -1        99-2.05379E+01-3.15293E+01 2.09362E+01-1.03895E+01 2.28164E+00-7.91493E+00
 -1       100-5.82066E+01-5.89326E+00 4.45369E+01-1.23200E+00 2.34310E+00-3.60844E+00
 -1       101-5.78613E+01 5.02678E+00 4.11884E+01-2.17283E+01 7.10667E+00-5.48994E+00
 -1       102-5.73914E+01 3.62020E+01 6.01432E+00-2.00192E+01 4.67452E+00-1.02586E+01
 -1       103-7.62129E+01 4.37327E+01 1.40035E+01-2.85696E+01-7.32882E-01 3.91199E+00
 -1       104-6.01121E+01 4.99801E+01 1.73417E+01 2.91576E+01-9.81922E-01-6.96422E+00
 -1       105-6.60645E+01 1.42683E+00 3.62957E+01 4.13232E+01-4.15246E+00-1.23496E+01
 -1       106-9.71513E+01 5.38545E+01 2.55720E+01-3.30430E+01 3.12124E+00 1.56607E+00
 -1       107-1.04183E+02 7.22116E+01 1.44210E+01 1.79418E+01-1.46328E+00-6.01444E+00
 -1       108-1.00297E+02 7.91923E+01 1.55954E+01-3.90426E+00 5.00268E+00-1.31385E+01
 -1       109-3.16346E+01 1.79463E+01 6.94873E+00-3.33318E+01-8.21224E+00 1.26532E+01
 -1       110-4.40201E+01 1.46265E+01 7.18409E+00-2.23593E+01-4.48267E+00 6.73024E+00
 -1       111-5.67475E+01 3.11930E+01 6.92124E+00-4.31023E+00 1.17889E-01 1.17149E+01
 -1       112-1.45054E+01 1.89789E+01 2.93148E+00 3.62366E+01 1.05515E-01 1.39409E+01
 -1       113-6.56505E+01 3.51259E+01 9.35473E+00 1.90568E+01 3.36101E+00 1.11442E+01
 -1       114-5.54035E+01 3.97664E+01 5.83466E+00 3.20261E+01 3.49060E-01 3.24548E+00
 -1       115-7.07518E+00-4.02541E+01 2.31050E+01 1.11345E+01 1.28068E+01 6.60470E+00
 -1       116 2.97045E+00-3.76126E+01 1.40011E+01-2.67639E+01-9.15362E+00 3.11716E+00
 -1       117-2.77570E+01-3.33412E+01 3.21761E+01-4.62322E+01-7.53764E-01 5.99311E-01
 -1       118-4.06837E+01-4.34420E+01 4.78951E+01-2.26615E+01 5.44063E+00 6.48205E+00
 -1       119-3.53899E+01 1.16079E+01 1.44949E+01-4.57720E+01 9.05612E-01 1.93236E+01
 -1       120-4.85069E+01 2.04160E+01 1.30615E+01-4.79713E+01 6.56195E+00 2.74072E-01
 -1       121-2.45222E+01 1.77397E+01 2.90011E+00-3.91555E+01 3.32572E+00 3.00402E+00
 -1       122-7.09925E+01 3.94023E+01 9.58625E+00 3.52894E+01 2.65144E+00 3.69723E+00
 -1       123-6.66179E+01-1.60469E+01 4.28716E+01 1.27700E+01 3.92416E+00 2.29752E+00
 -1       124-9.91397E+01 4.67917E+01 2.07183E+01-4.63612E+01 5.89423E+00 7.12830E+00
 -1       125-9.64726E+01 7.67973E+01 1.05129E+01-6.30538E+00 3.76459E+00 9.48763E+00
 -1       126-1.20813E+02 6.38708E+01 2.47857E+01-1.58029E+01 1.04161E+01 1.36943E+01
 -1       127 1.47394E+01 1.80061E+00-7.32983E+00 1.54518E+01 3.83871E+00 4.79439E+01
 -1       128 6.25640E+01-7.11760E+00-3.65307E+01 1.11160E+01-8.74473E-01 3.44143E+01
 -1       129 5.76751E+01-4.48724E+00-3.47450E+01 1.76120E+01 3.63045E+00 2.03799E+01
 -1       130 6.22932E+00-2.35572E+01 4.80205E+01 7.21768E+00 1.74877E-01 1.30613E+01
 -1       131 2.94566E+01-4.70386E+01 6.41889E+01 9.68360E+00 2.22912E+00-1.59431E+01
 -1       132 2.01236E+01-4.37479E+01 6.08465E+01 1.50429E+00 6.70211E-01-2.61979E+01
 -1       133-1.93759E+00-1.60780E+01 3.96283E+01-3.34142E-01-1.08961E+00-2.26714E+01
 -1       134 7.36100E+00 2.10164E+00-4.07409E+00 1.30183E+01 3.19110E+00-2.32327E+01
 -1       135 4.87489E+01 4.20260E+00-4.04481E+01 2.08392E+01 2.27034E+00-3.75342E+01
 -1       136 5.02292E+01 5.62338E-01-3.51883E+01 7.52066E+00 4.16399E-01-4.33817E+01
 -1       137 6.18843E+01-7.76212E+00-3.63646E+01 2.00627E+00 1.59488E+00-2.16969E+01
 -1       138 7.95213E+01-1.06564E+01-5.01904E+01 3.50139E+00 2.42977E+00 9.63697E+00
 -1       139 5.75240E+01-3.73889E+01 1.84415E+01 7.70797E+00 3.23567E+00 1.29603E+01
 -1       140 3.95542E+01-1.49800E+01-1.78979E+00 2.19584E+01 1.09140E+00-3.90593E+01
 -1       141 6.73630E+01-2.32284E+01-3.53573E+01 1.06798E+01-6.22556E+00 4.57216E+01
 -1       142 8.97210E+01-6.27569E+00-6.40044E+01 1.07398E+01 4.35172E+00-9.51187E+00
 -1       143 9.06767E+01-1.79250E+01-3.36490E+01 2.44292E+01 1.65147E+00-4.10789E+01
 -1       144 1.00229E+02-2.27518E+01-4.35809E+01 1.62932E+01-6.85745E-01-5.15408E+00
 -1       145 1.90343E+01 2.45494E+00-2.37597E+01-7.64905E+00-2.99693E+00 3.56910E+01
 -1       146 4.74486E+01-1.78889E+00-3.52701E+01-1.46760E+01 6.95171E+00 3.58575E+01
 -1       147 4.54580E+01 2.50337E+00-3.95237E+01-1.47262E+01 4.11668E+00 4.29859E+01
 -1       148 2.39812E+01-2.65499E+01 2.16702E+01 2.15883E-01-1.35181E-01 2.92607E+01
 -1       149 5.08326E+01-4.64249E+01 2.52821E+01 1.88473E+00-3.13490E+00-4.70291E+00
 -1       150 5.81626E+01-4.11525E+01 1.12470E+01 5.40944E+00 4.60376E+00 2.84953E+01
 -1       151 5.13964E+00-2.89788E+01 3.21258E+01-5.13571E+00-8.55622E-01-2.21768E+01
 -1       152 1.40767E+01-2.50405E+00-2.53092E+00-1.91306E+01-3.35803E+00-4.59042E+01
 -1       153 4.66536E+01 3.68016E+00-3.58817E+01-1.61565E+01 5.87716E+00-4.20473E+01
 -1       154 7.62344E+01 2.18537E+00-5.36685E+01-1.23777E+01 5.19191E+00-3.98467E+01
 -1       155 5.16119E+01-3.06460E+00-3.86360E+01-1.27165E+01-7.67586E-01-3.92054E+01
 -1       156 6.35377E+01-5.25990E+00-5.06106E+01-7.56276E+00 9.03839E-01-5.92533E+00
 -1       157 6.67205E+01-1.40654E+01-3.10796E+01-9.43308E-01 7.66305E+00 4.81163E+01
 -1       158 6.62687E+01-1.13403E+01-3.68607E+01-1.73743E+01-4.28078E-01-1.87134E+01
 -1       159 4.74944E+01-6.16881E+00-2.71189E+01-1.08703E+01 1.01494E+01 2.98622E+01
 -1       160 8.73478E+01 1.33705E+00-6.71265E+01-1.34031E+01 6.07433E+00 4.13666E+00
 -1       161 9.94656E+01-2.34297E+01-5.22840E+01-6.24169E+00 8.39445E+00 3.47497E+01
 -1       162 1.18723E+02-2.06070E+01-7.21284E+01-7.04724E+00 9.01816E+00-6.86579E+00
 -1       163 2.07325E+01-8.63959E+01 6.69514E+01-4.46700E+00 3.22243E+00-5.00060E+00
 -1       164 8.70843E+00-1.59521E+02 1.71870E+02-5.31203E-01 9.20466E+00 2.58742E+00
 -1       165-1.86498E+01-1.63628E+02 2.04152E+02 7.58478E+00 9.04524E+00 4.05337E-02
 -1       166-1.03845E+01-9.57019E+01 1.00659E+02 4.65057E+00-7.58451E+00-7.12617E+00
 -1       167 1.19476E+01-1.83520E+02 1.48781E+02 3.46012E+00-8.86466E-01-4.33955E-01
 -1       168 1.44734E+01-2.03003E+02 1.62895E+02 1.72733E+00-2.77039E+00-6.12312E-01
 -1       169-6.66150E+00-9.55857E+01 1.01895E+02-4.22462E+00-5.24289E+00-2.40233E+00
 -1       170-2.91548E+00-1.10002E+02 1.16597E+02 2.25725E+00 7.05756E+00 5.83556E+00
 -1       171-2.21973E+01-1.46750E+02 2.04359E+02-5.59243E+00 1.55524E+01 6.18308E+00
 -1       172-2.72022E+01-1.59218E+02 2.29433E+02 2.64646E+00 4.36407E+00 4.49589E+00
 -1       173 2.57784E-01-2.23640E+02 2.00334E+02 2.54056E+00 8.82754E+00 6.00331E+00
 -1       174 1.79454E+01-2.32382E+02 1.69309E+02 5.12792E+00-2.46034E+00 1.00462E+00
 -1       175 1.20937E+01-1.96802E+02 1.47083E+02-2.68825E+00-5.81148E+00-5.17200E+00
 -1       176-5.97188E+00-1.58426E+02 1.82039E+02 7.01699E+00-2.39976E+00-4.13882E+00
 -1       177 9.51959E-01-2.78992E+02 2.67077E+02-5.40436E+00-1.28624E+00 1.17764E+01
 -1       178-1.19492E+01-1.79770E+02 1.86297E+02 6.14127E+00-4.46788E-01-3.53120E+00
 -1       179-2.38698E+00-2.83835E+02 2.68499E+02 4.16887E+00-4.40838E+00-2.76897E+00
 -1       180-1.01689E+01-2.82316E+02 2.84760E+02 9.03566E-01 2.19751E+00 2.76117E+00
 -1       181-3.68802E+00-5.77633E-05-3.80018E-05-1.04782E+01 3.94121E-05 1.53490E+01
 -1       182 1.45700E+01-2.65842E-06 2.12200E-04-1.01331E+01-5.12463E-05-1.34800E+01
 -1       183 6.15969E+00-5.24343E-01-4.52504E+00-1.03295E+01 2.34709E+00 1.65695E+01
 -1       184 2.65905E+00-9.07837E-05-1.97389E-05-3.48124E+01-2.38441E-05-2.87871E+01
 -1       185-1.07807E+01-1.30135E-04-3.44524E-05-2.49296E+01 1.22490E-06-7.21748E+00
 -1       186-2.25924E+01 1.80100E+00 3.48648E+00-3.28250E+00-2.55541E+00-4.77674E+00
 -1       187-1.31929E+01-1.54519E+00 3.68136E+00 2.33530E+01 9.13758E-01-7.95916E+00
 -1       188 6.40263E+00 1.21620E+00 2.01986E-01 3.07679E+01-7.55228E-01 3.95344E+01
 -1       189 3.21814E+01-5.03814E+00-9.14296E+00 1.54239E+01-6.97023E+00 3.07569E+01
 -1       190 1.25712E+01 3.80929E-05 2.01144E-04 1.19001E+01-1.24915E-05 1.69602E+00
 -1       191-3.76466E+00-6.34169E-01-3.45572E-01 2.32973E+01 3.17463E+00 2.07782E+01
 -1       192-1.08323E+01-7.92268E-05-4.57017E-05-6.53765E+00 2.05759E-05 6.31187E+00
 -1       193 2.63792E+00 4.50827E-01 6.51216E-01-1.81321E+01-1.32174E+00-2.78865E+01
 -1       194-1.45687E+01 6.93180E+00-1.17078E-02 1.31920E+01-9.93830E-03-2.48162E+00
 -1       195-1.96718E+01-1.28636E-04-3.78254E-05 7.02849E+00-4.10704E-06 9.50346E+00
 -1       196 5.54836E+00 5.23159E-01-4.20935E+00 3.64746E+00 4.50504E-01 1.06341E+01
 -1       197-1.06785E+01 3.42185E+00-1.81879E-03-8.23124E+00-3.21209E-02-3.31936E+00
 -1       198 1.38014E+00-8.91492E-05 5.98940E-05 1.08711E+00-2.02076E-05-4.96254E+00
 -1       199-1.21076E+01-3.17185E+01 3.86864E+01-1.84895E+01 3.76600E+00-1.41556E+01
 -1       200-9.90837E+00-9.40244E+01 9.13697E+01-9.24389E+00 1.74207E+00-1.08334E+00
 -1       201-6.25843E+01-1.57179E+00 5.65093E+01-2.32829E+01 8.55181E+00-2.54411E+00
 -1       202-6.97102E+00-9.18648E+01 1.17646E+02-4.30308E+00 2.86767E+00-1.27228E+01
 -1       203 6.79995E+00-1.89661E+02 1.76450E+02-5.08324E+00 3.22888E-01-6.58748E+00
 -1       204-2.84262E+01-1.10324E+02 1.19022E+02-2.92630E+01-3.46644E-01 8.71764E+00
 -1       205-1.06182E+01-3.25215E+01 5.34448E+01-2.64951E+01 3.05419E+00 9.52006E+00
 -1       206 1.86359E+00-9.17758E+01 1.20883E+02 7.70182E+00-8.83479E-01 5.41096E+00
 -1       207 5.67829E-01-1.22680E+02 9.79604E+01 1.36375E+01 6.14479E+00 5.58095E+00
 -1       208-1.00448E+01-1.78430E+02 1.93467E+02 1.23511E+01 7.01619E+00-1.98393E+00
 -1       209-1.95165E+01-2.83731E+01 3.92924E+01 4.25927E-01 1.52961E+00-1.48804E+01
 -1       210-9.38812E+00-9.62590E+01 1.09164E+02 1.55031E+01 5.42170E+00-9.52560E-01
 -1       211 1.16107E+01-3.09674E+01 1.63667E+01 1.58055E+01 3.97057E+00-2.59915E+01
 -1       212 7.49078E+00-3.96815E+01 3.42772E+01 2.10161E+01 5.31301E+00 1.44521E+01
 -1       213 3.06021E+01 3.29986E+00-2.73393E+01 1.30158E+01 6.33520E+00-1.68161E+01
 -1       214 4.68867E+01-4.23448E+01 8.66198E+00 1.39359E+01 6.03027E+00-8.75155E+00
 -1       215 1.76449E+00-1.17100E+01 1.19168E+01-1.60194E+01 3.19116E+00 1.15962E+01
 -1       216 4.90326E+01 2.30903E-01-4.43941E+01-9.23522E+00 2.01885E+00-1.95599E+01
 -1       217-1.54081E+01-5.74283E+01 6.80207E+01-1.73120E+01 1.69004E+00 4.84743E+00
 -1       218 2.97517E+01-2.88888E+01 5.02438E+00-1.26052E+01 6.49313E+00-2.30730E+01
 -1       219 5.28054E+01-1.08509E+01-3.09169E+01-1.05473E+01 8.51305E+00-3.33974E+00
 -1       220 7.98865E-01-6.03099E+01 6.42742E+01-4.54491E-02 4.92105E+00 2.19226E+01
 -1       221 3.04910E+01-7.69225E+00-1.78173E+01 1.58735E+01-3.01323E+00 1.44805E+01
 -1       222 5.29256E+01-4.56940E+01 8.10039E+00 1.21008E+01-2.32541E+00 1.42790E+01
 -1       223-2.00556E+01 1.85431E+01 3.63764E+00 2.50168E+01 4.58905E+00 3.17260E+01
 -1       224 2.29274E+00 8.32579E+00-9.75071E+00 1.91516E+01 2.50967E+00 2.08854E+01
 -1       225-4.01830E+01-1.81895E+01 4.72789E+01 1.67770E+01 3.71716E+00 1.14912E+01
 -1       226 6.41345E+00-3.20402E+01 3.38696E+01 1.77631E+01 7.26841E-01 1.44312E+01
 -1       227 9.13650E+00 9.23746E+00-1.90709E+01-2.11816E+01 3.85283E+00 2.16959E+01
 -1       228-3.88594E+01 2.45139E+01 9.74947E+00 1.04574E+01 2.68791E+00 1.26345E+01
 -1       229-5.89845E+01 2.23321E+01 2.41488E+01-5.55044E+00 3.47155E+00 1.32027E+01
 -1       230-4.72894E+01-6.82192E+00 3.40321E+01-3.25963E+01 6.51563E-01 1.94634E+01
 -1       231-3.72504E+01 1.63200E+01 1.27363E+01-2.62027E+01 1.19415E+00 1.26083E+01
 -1       232 4.53853E+01-7.47787E+01 5.09412E+01 9.99526E+00 2.41931E+00-1.10408E+01
 -1       233-8.63307E+00 7.16442E+00-1.23372E+01-3.29882E+01 4.56399E+00 2.72302E+01
 -1       234 1.64776E+01-1.39099E+01 6.82180E+00-2.36250E+01 6.79136E+00 2.70090E+01
 -1       235 3.36987E+01-1.34085E+01-1.27183E+01-1.92864E+01 4.76017E+00 2.31218E+01
 -1       236 5.12860E+01-4.14616E+01 9.29908E-01-5.86867E+00 5.81393E+00 2.63692E+01
 -1       237-2.26822E+00-1.79868E+02 1.76194E+02 1.02821E+01 1.34464E+00 8.36628E+00
 -1       238-4.46796E+01-3.17617E+01 6.41483E+01-1.16926E+01 8.29499E+00 1.12538E+01
 -1       239 2.83965E+01-3.55043E-01-1.97586E+01-1.12807E+01 6.89448E+00 2.34140E+01
 -1       240 4.21088E+01 4.94192E-01-3.67560E+01-1.12825E+01 3.84215E+00-6.18507E+00
 -1       241 1.80349E+01-8.21470E+01 6.75047E+01 9.46163E+00-1.77808E+00-1.85759E+01
 -1       242 1.22637E+01-1.26346E+02 1.39518E+02 4.07224E+00 9.78698E+00-1.51913E+01
 -1       243 1.29696E+01-6.89262E+01 6.62706E+01 1.31682E+01 8.45440E-02-2.31654E+01
 -1       244-1.36162E+01-9.77079E+01 9.73620E+01 1.29985E+01-1.73802E+00-1.75873E+00
 -1       245-1.42290E+01-1.73554E+02 1.95454E+02 1.28368E+01 7.66666E-01-1.21987E+01
 -1       246-3.14706E+01 2.32770E+01 7.42884E+00-2.08093E+01 1.33700E+00-1.15179E+01
 -1       247-2.92217E+01 2.70379E+01-1.08476E+00-1.90441E+01 6.17122E+00-1.39099E+01
 -1       248-7.19310E+00 1.06579E+01-1.03199E+01-4.47266E+00 3.04390E+00-9.59707E+00
 -1       249-1.94957E+01 1.87868E+01-2.68148E+00 3.68914E+00 7.58792E-01-7.63714E+00
 -1       250-8.60091E+00 1.80812E+01 1.19287E+00-2.71317E+01-4.50669E-01-2.89026E+01
 -1       251-7.40579E+00-1.83835E+02 1.87355E+02-9.82965E+00 1.96627E+00-5.19167E+00
 -1       252-3.68747E+00-1.32919E+02 1.25849E+02-1.63689E+01-1.64558E+00 1.99820E+01
 -1       253 3.68110E+01-6.64298E+00-1.82203E+01-1.66588E+01 4.90098E+00 1.56198E+01
 -1       254-2.61655E+01 2.39315E+01-1.26650E-01-1.49178E+01 1.32291E+00 1.12861E+01
 -1       255-8.38422E+00 2.81719E+01-1.99543E+01 2.72996E+01 5.49491E+00-2.37314E+01
 -1       256-3.54920E+00 2.34993E+01-2.05381E+01-1.08436E+01 2.17917E+00-1.63065E+01
 -1       257 8.29486E+00 1.12064E+01-1.19818E+01 5.51974E+00 1.49053E+00 3.63873E+00
 -1       258 2.95240E+00 5.87286E+00-6.10054E+00-5.15847E+00-1.97728E+00 5.27667E+00
 -1       259 2.50413E+01 4.92647E+00-2.75400E+01-1.71805E+01 5.14029E+00-2.26112E+01
 -1       260 1.87337E+01 5.03285E+00-1.72254E+01 1.74473E+01 2.81025E+00-1.89806E+01
 -1       261-4.03638E+01 3.21083E+01 3.48824E+00 2.13254E+01 3.22372E+00-1.56302E+01
 -1       262 1.02641E+01 2.27859E+01-2.59299E+01-2.47951E+01 3.18892E+00-2.67528E+01
 -1       263 3.11851E+01-6.85462E+01 4.14607E+01-1.28508E+01 2.35745E+00-3.93448E+00
 -1       264 2.87659E+01-1.26788E+02 1.03246E+02-7.60738E+00 5.13578E+00 1.78208E+01
 -1       265-2.55360E+01 2.47476E+01 1.96880E+00 1.99018E+01 6.28118E+00 1.68647E+01
 -1       266-2.26125E+01 2.48764E+01-3.78674E+00-2.13583E+00 5.44236E+00 1.46826E+01
 -1       267 4.71024E+01-8.17620E+00-3.46816E+01 1.67340E+01-4.75531E-01 1.79130E+01
 -1       268 5.48573E+01-3.75236E+00-3.77906E+01 9.98032E+00 5.26261E+00-8.15480E+00
 -1       269-2.39447E+01-3.00581E+01 4.30771E+01 1.85140E+01 1.97620E+00-1.40870E+01
 -1       270-2.89417E+01 1.66285E+01 2.71755E+00-1.67696E+01-2.16602E-01 1.29921E+01
 -1       271-4.16436E+01 1.23658E+01 1.03507E+01-1.02694E+01 3.90808E+00-7.49395E+00
 -1       272-1.95463E+01 8.27074E+00 3.87828E+00-2.74377E+01-4.61427E+00 1.83205E+01
 -1       273-5.85566E+01 4.21489E+00 4.30104E+01 3.22325E+01-7.94729E-02-1.14497E+01
 -3
    1PSTEP                        25           1           1          
    1PGM                1.000000E+00                                  
    1PGK                1.982231E+12                                  
    1PHID                         -1                                  
    1PSUBC                         0                                  
    1PMODE                         9                                  
  100CL  109 2.24077E+05         273                     2    9MODAL      1
 -4  DISP        4    1
 -5  D1          1    2    1    0
 -5  D2          1    2    2    0
 -5  D3          1    2    3    0
 -5  ALL         1    2    0    0    1ALL
 -1         1-7.17532E+01-1.35542E+03-1.35545E+03
 -1         2 6.94750E+01 5.89071E+02-4.29636E+02
 -1         3 1.64945E+02-5.75947E+02 7.87996E+02
 -1         4-3.17714E+01-3.70395E+02-3.91364E+02
 -1         5 0.00000E+00 0.00000E+00 0.00000E+00
 -1         6 0.00000E+00 0.00000E+00 0.00000E+00
 -1         7 0.00000E+00 0.00000E+00 0.00000E+00
 -1         8 0.00000E+00 0.00000E+00 0.00000E+00
 -1         9 0.00000E+00 0.00000E+00 0.00000E+00
 -1        10 0.00000E+00 0.00000E+00 0.00000E+00
 -1        11-4.19330E+01-3.67198E+02 6.36825E+02
 -1        12 5.95777E+01 1.12635E+02 2.35035E+02
 -1        13-1.36026E+02-1.42662E+02 1.35473E+01
 -1        14 1.62382E+02 3.61456E+02-1.99789E+02
 -1        15-6.66506E+00-6.69264E+02-7.22849E+02
 -1        16-8.80352E+00-6.88401E+02-7.74731E+02
 -1        17 0.00000E+00 0.00000E+00 0.00000E+00
 -1        18 0.00000E+00 0.00000E+00 0.00000E+00
 -1        19-2.05697E+01 2.53520E+02 2.95016E+02
 -1        20-3.92442E+01-6.88320E+02-6.53526E+02
 -1        21 3.02728E+02-5.46529E+02 4.90371E+02
 -1        22-4.98168E+01-1.04197E+03-2.39473E+02
 -1        23 4.55908E+01 6.00837E+02-4.35674E+02
 -1        24 6.84888E+01 7.88608E+01 1.36237E+02
 -1        25 1.98906E+01-2.32138E+02-9.75751E+02
 -1        26-2.55967E+02 4.50993E+02-4.68542E+02
 -1        27 0.00000E+00 0.00000E+00 0.00000E+00
 -1        28 0.00000E+00 0.00000E+00 0.00000E+00
 -1        29-3.92371E+01-1.92956E+02 4.93624E+02
 -1        30 2.07410E+02 4.94925E+01-2.48075E+02
 -1        31 0.00000E+00 0.00000E+00 0.00000E+00
 -1        32 0.00000E+00 0.00000E+00 0.00000E+00
 -1        33 1.03264E+02-4.69788E+02-9.84760E+01
 -1        34 1.33363E+02-3.20676E+02 2.83996E+02
 -1        35 3.00796E+01-4.29294E+02-9.09562E+01
 -1        36-1.63326E+01 4.08816E+02-2.80359E+01
 -1        37-1.43503E+02 1.13789E+02 1.46842E+02
 -1        38 1.89909E+02 1.16658E+01 1.24843E+02
 -1        39 1.42028E+02 1.26204E+02 4.09815E+01
 -1        40-1.22262E+02 2.24916E+02-1.45077E+02
 -1        41 3.42040E+00 4.67281E+01 5.15878E+02
 -1        42-2.12382E+01 3.54342E+02-4.57131E+02
 -1        43-8.87758E+01 7.96002E+01-1.82371E+02
 -1        44-9.00853E+01-6.32949E+01-6.11854E+02
 -1        45 3.20476E+01 2.80527E+01 3.23539E+02
 -1        46-3.98991E+01 1.90430E+02 1.18793E+02
 -1        47-9.20623E+01 2.64776E+02-6.75546E+01
 -1        48 0.00000E+00 0.00000E+00 0.00000E+00
 -1        49 0.00000E+00 0.00000E+00 0.00000E+00
 -1        50 0.00000E+00 0.00000E+00 0.00000E+00
 -1        51-1.20972E+01 6.25236E+01 2.18942E+00
 -1        52-1.30959E+01 1.23648E+02 1.61024E+02
 -1        53-2.08434E+01 1.92910E+02 8.23311E+01
 -1        54 4.46506E+00 1.34632E+02 1.67786E+02
 -1        55 0.00000E+00 0.00000E+00 0.00000E+00
 -1        56 0.00000E+00 0.00000E+00 0.00000E+00
 -1        57 0.00000E+00 0.00000E+00 0.00000E+00
 -1        58-5.42966E+01-2.11841E+02 3.83401E+02
 -1        59 9.41419E+00-2.12284E+02 5.47883E+02
 -1        60 5.71024E+01 3.97158E+02-1.44405E+02
 -1        61-1.32145E+02-3.06211E+02-1.64378E+02
 -1        62 3.06906E+00 1.10373E+02-2.46719E+01
 -1        63 1.53067E+02 5.22843E+02-3.38168E+02
 -1        64-5.57301E+00-3.49682E+02-3.75227E+02
 -1        65-2.30599E+01-7.55694E+02-8.13103E+02
 -1        66-3.12790E+01-5.07596E+02-5.51916E+02
 -1        67 0.00000E+00 0.00000E+00 0.00000E+00
 -1        68 0.00000E+00 0.00000E+00 0.00000E+00
 -1        69 0.00000E+00 0.00000E+00 0.00000E+00
 -1        70-8.48859E+00 2.02287E+02 1.98985E+02
 -1        71-1.90294E+01-8.79629E+01-5.69458E+01
 -1        72-5.26680E+01-1.12578E+03-1.10148E+03
 -1        73 3.20324E+02-5.47186E+02 6.33181E+02
 -1        74 1.49490E+02-7.23708E+02 2.08044E+02
 -1        75-1.51619E+02-1.25583E+03-7.93251E+02
 -1        76 2.02101E+01 3.80776E+02-2.85534E+02
 -1        77 6.81446E+01 4.54491E+02-2.79306E+02
 -1        78 1.43963E+02-3.18758E+02 5.28292E+02
 -1        79 6.68054E+01-7.97894E+02-1.22867E+03
 -1        80-1.72060E+02 2.16184E+02-6.38988E+02
 -1        81-1.52210E+02 5.11090E+02-4.24317E+02
 -1        82 0.00000E+00 0.00000E+00 0.00000E+00
 -1        83 0.00000E+00 0.00000E+00 0.00000E+00
 -1        84 0.00000E+00 0.00000E+00 0.00000E+00
 -1        85 2.06551E+01-4.15176E+02 7.02334E+02
 -1        86 7.06688E+01 1.94190E+01 1.03142E+02
 -1        87 9.84999E+01-1.44376E+02-3.46187E+02
 -1        88 0.00000E+00 0.00000E+00 0.00000E+00
 -1        89 0.00000E+00 0.00000E+00 0.00000E+00
 -1        90 0.00000E+00 0.00000E+00 0.00000E+00
 -1        91 5.72925E+01-2.69554E+02-1.84701E+02
 -1        92 9.35039E+01-5.77325E+02-3.96646E+02
 -1        93 5.54167E+01-2.62335E+02-5.74085E+01
 -1        94 3.48890E+01-2.44279E+02 5.19728E+01
 -1        95-5.50755E+01-2.17791E+02 3.05402E+02
 -1        96 5.01049E+01-3.29429E+02 4.55822E+02
 -1        97 1.57185E+02-1.05453E+02 3.27571E+02
 -1        98 1.66903E+02 3.34792E+02-8.70197E+01
 -1        99-9.04897E+01-4.25148E+02-2.71536E+02
 -1       100 7.61962E+01 1.92433E+01 1.97157E+01
 -1       101-4.84448E+01-2.25792E+02-6.02406E+01
 -1       102-3.94527E+01-6.08742E+02-4.08589E+02
 -1       103 2.94483E+01-6.75235E+02-4.55490E+02
 -1       104 3.36011E+01-3.09673E+02 2.59185E+02
 -1       105 1.84822E+02 8.92284E+01 7.50360E+01
 -1       106 8.23332E+01-5.34843E+02-1.32542E+02
 -1       107 1.00509E+02-3.39401E+02 9.94773E+01
 -1       108 8.32369E+01-4.35112E+02 1.01929E+02
 -1       109-4.38069E+01 2.77544E+02-1.34328E+02
 -1       110-1.67004E+01 2.64874E+02-3.37593E+01
 -1       111-1.05482E+01 2.37295E+02 5.60917E+01
 -1       112 1.35483E+01 2.10352E+02 1.67345E+02
 -1       113-2.08925E+02-2.82422E+02-1.07492E+02
 -1       114-1.05076E+02 1.74850E+02 2.12074E+02
 -1       115-2.02051E+02-1.04360E+03-5.92680E+02
 -1       116 3.05880E+02-3.48370E+02 4.32792E+02
 -1       117 2.55464E+02-3.93324E+02 3.34850E+02
 -1       118 5.88177E+01-5.76268E+02 1.41470E+02
 -1       119 2.39987E+02 8.73312E+01 9.33906E+01
 -1       120 1.17457E+02 4.48365E+02-1.59669E+02
 -1       121 8.78633E+00 5.34816E+02-2.23120E+02
 -1       122-3.80180E+01 2.49356E+02 1.73120E+02
 -1       123-1.61487E+02-6.23999E+02-8.54019E+01
 -1       124 7.35730E+01 3.48809E+02-4.59053E+00
 -1       125-4.49084E+01 3.02667E+02 1.15549E+02
 -1       126-1.56569E+01 3.93044E+01 1.36742E+02
 -1       127-1.30096E+01 2.00900E+02 2.27861E+02
 -1       128 1.00273E+02 1.20361E+02 1.63971E+02
 -1       129 1.62622E+02-1.84498E+02-2.93243E+02
 -1       130 1.40687E+02-6.04213E+02-1.00115E+03
 -1       131-5.68089E+01 1.03143E+02-6.20430E+02
 -1       132-2.06417E+02 3.50745E+02-3.62476E+02
 -1       133-1.43876E+02 3.75005E+02-1.76517E+02
 -1       134 3.16895E+01-1.13252E+02 3.83843E+02
 -1       135-6.20746E+01-5.28742E+00 4.76615E+02
 -1       136-3.42068E+00-1.78242E+02 6.08398E+02
 -1       137 8.39888E+00-1.96371E+00 3.72660E+02
 -1       138 8.86230E+00 9.31678E+01 3.18989E+02
 -1       139 1.39657E+02-1.26229E+02-6.29106E+02
 -1       140-1.24371E+02 1.94613E+02 1.02430E+02
 -1       141 5.81309E+01 1.79628E+02 2.71238E+02
 -1       142 5.47895E+01 1.65530E+02 2.85987E+02
 -1       143-5.50472E+01 1.42466E+02 2.60138E+02
 -1       144 5.30061E+01 1.26754E+02-9.91785E+01
 -1       145 5.72291E+01 3.04912E+02-2.86210E+02
 -1       146 2.28051E+01 4.59059E+02-4.46574E+02
 -1       147-6.56045E+01 3.53450E+02-2.66461E+02
 -1       148-5.53531E+01-2.21866E+02 4.49242E+02
 -1       149 5.01589E+01 1.26180E+01-1.45464E+02
 -1       150-8.69931E+01-3.11992E+01 1.88276E+02
 -1       151 8.69324E+01-2.56113E+02-4.96794E+02
 -1       152-7.46951E+01-2.19123E+02-3.78460E+02
 -1       153-8.05227E+01-3.67548E+02-6.99223E+02
 -1       154-2.24206E+01-3.98062E+02-7.49783E+02
 -1       155-4.89345E+01-4.79544E+01-3.59712E+02
 -1       156-1.44131E+01 8.43478E+01-3.23047E+02
 -1       157-1.47638E+02 6.54740E+01 5.45295E+01
 -1       158 2.46742E+01-2.01096E+02-5.29568E+02
 -1       159 6.96795E+00 2.06498E+02-2.84792E+02
 -1       160-5.75465E+01 1.75961E+02-5.06324E+02
 -1       161-1.11082E+02 2.02051E+02-3.40822E+02
 -1       162-8.03413E+01 3.80554E+01-4.81233E+02
 -1       163 1.79198E+02-3.46348E+02 5.61540E+02
 -1       164 4.99428E+01-5.56569E+01 3.70344E+02
 -1       165 5.82363E+01 1.35401E+02 1.19244E+02
 -1       166-2.69219E+01-8.89920E+01-1.18351E+02
 -1       167-5.97974E+01 2.73424E+01 6.08501E+01
 -1       168-1.04248E+01 1.89958E+02 5.77943E+00
 -1       169-6.41930E+01 4.81003E+02-2.93932E+02
 -1       170-3.91829E+01-6.82443E+02-6.70408E+02
 -1       171-1.60416E+02 3.83718E+02-3.04673E+02
 -1       172-8.59251E+01 9.02533E+01-4.23504E+02
 -1       173-1.38107E+01-2.64500E+02-1.29094E+02
 -1       174 7.01374E+01-3.48181E+02 2.18607E+02
 -1       175 1.38296E+02-2.84977E+02 4.40194E+02
 -1       176 2.84774E+01 1.10540E+02-6.31871E+00
 -1       177-2.36759E+01 2.03507E+02 2.07853E+02
 -1       178-6.31195E+01 3.76780E+02-8.91473E+01
 -1       179-6.15368E+01 2.78224E+02 9.61720E+01
 -1       180-3.43124E+01 1.47871E+02 1.65147E+02
 -1       181 0.00000E+00 0.00000E+00 0.00000E+00
 -1       182 0.00000E+00 0.00000E+00 0.00000E+00
 -1       183 0.00000E+00 0.00000E+00 0.00000E+00
 -1       184 0.00000E+00 0.00000E+00 0.00000E+00
 -1       185 0.00000E+00 0.00000E+00 0.00000E+00
 -1       186 0.00000E+00 0.00000E+00 0.00000E+00
 -1       187 0.00000E+00 0.00000E+00 0.00000E+00
 -1       188 0.00000E+00 0.00000E+00 0.00000E+00
 -1       189 0.00000E+00 0.00000E+00 0.00000E+00
 -1       190 0.00000E+00 0.00000E+00 0.00000E+00
 -1       191 0.00000E+00 0.00000E+00 0.00000E+00
 -1       192 0.00000E+00 0.00000E+00 0.00000E+00
 -1       193 0.00000E+00 0.00000E+00 0.00000E+00
 -1       194 0.00000E+00 0.00000E+00 0.00000E+00
 -1       195 0.00000E+00 0.00000E+00 0.00000E+00
 -1       196 0.00000E+00 0.00000E+00 0.00000E+00
 -1       197 0.00000E+00 0.00000E+00 0.00000E+00
 -1       198 0.00000E+00 0.00000E+00 0.00000E+00
 -1       199-1.40964E+01-2.54350E+02-2.18341E+02
 -1       200-1.72163E+01 1.07377E+01 5.74731E+01
 -1       201 2.20650E+01-1.17786E+02 4.95592E+01
 -1       202 7.67323E+00 4.17704E+01-3.28374E+01
 -1       203-3.41963E+01 1.65165E+02 1.25483E+02
 -1       204 9.96993E+01-1.84348E+02 3.14968E+02
 -1       205 1.01299E+02-1.75193E+02 3.52321E+02
 -1       206-1.41709E+01-8.44061E+01-4.41754E+02
 -1       207-3.31644E+01-4.41606E+02-1.37601E+02
 -1       208-3.59885E+01 1.25726E+02-7.09200E+01
 -1       209 7.07283E+00 1.04396E+02 1.64488E+02
 -1       210-2.81382E+01 2.13641E+02 1.54730E+02
 -1       211 1.40533E+01 1.45477E+02 2.64855E+02
 -1       212-8.57304E+00 2.17332E+02 2.24331E+02
 -1       213 3.84946E+01 1.18971E+02 3.46389E+02
 -1       214 1.66811E+01 1.96060E+02 1.62628E+02
 -1       215-1.18390E+01 2.07129E+02 1.11988E+02
 -1       216-2.72994E+01 6.19753E+01-1.62393E+02
 -1       217-2.37209E+01 1.77497E+02 1.34753E+02
 -1       218-7.02797E+00-3.65161E+01-1.97619E+02
 -1       219-5.31043E+01 1.40700E+02-2.24921E+02
 -1       220-1.67369E+01 1.35982E+02 1.85178E+02
 -1       221 2.34862E+01 2.12547E+02 2.64041E+02
 -1       222 4.09234E+01 7.40450E+01-4.80809E+01
 -1       223-2.21690E+00 2.22740E+02 2.39770E+02
 -1       224-1.57203E+01 8.75729E+01 1.21800E+02
 -1       225-6.01244E+01-3.37457E+01 9.13312E+01
 -1       226-5.89434E+00-2.92812E+02-3.07929E+02
 -1       227-8.05753E+00 4.18440E+02-2.21491E+02
 -1       228-2.30404E+01 2.38987E+02 2.24158E+02
 -1       229-2.30284E+01 1.65540E+02 1.62571E+02
 -1       230 4.25188E+01 1.24883E+02 1.09393E+02
 -1       231-4.75495E+00 3.12767E+02 5.21148E+00
 -1       232-2.55753E+01 1.77438E+02-1.22851E+02
 -1       233 2.85636E+01 3.64303E+02-1.58117E+02
 -1       234-8.26497E+00 1.11426E+02 7.30684E+01
 -1       235-3.91725E+01 2.97723E+02-1.87297E+02
 -1       236-4.75080E+01 1.62540E+02-6.33931E+01
 -1       237-8.21171E+00 2.63236E+01 1.53769E+02
 -1       238-1.57148E+01-8.77925E+01 1.68677E+02
 -1       239-1.33499E+01 2.00310E+02-1.56017E+02
 -1       240-2.74465E+01 9.96685E+01-1.71569E+02
 -1       241-5.92182E+01 3.79181E+02-1.33208E+02
 -1       242-1.08668E+02 2.93803E+02-2.56818E+02
 -1       243-2.33014E+01 2.56824E+02 7.65296E+01
 -1       244 3.28369E+01 1.79422E+02 5.35007E+01
 -1       245-4.92337E+01 2.48792E+02 9.68497E+01
 -1       246 2.27483E+01-1.51407E+02-3.29696E+01
 -1       247 4.29896E+01-1.58242E+02 3.95143E+01
 -1       248-1.58728E+00 1.69119E+01 3.23796E+01
 -1       249 2.76783E+01-7.30868E+01 1.41912E+02
 -1       250 1.42438E+00-1.51613E+02-1.73631E+02
 -1       251-2.99855E+01 1.85632E+02 1.86972E+02
 -1       252-3.95212E+00 6.67890E+01 2.15524E+02
 -1       253-2.95245E+01 2.41258E+02-1.20700E+02
 -1       254-1.59398E+01 2.76626E+02 7.55712E+01
 -1       255 4.30214E+01-1.13896E+02 4.63778E+02
 -1       256-1.06742E+01-3.25626E+02-3.89698E+02
 -1       257 1.33961E+01 1.01713E+02 1.39392E+02
 -1       258-1.53610E+01 1.31260E+02 4.89660E+01
 -1       259-2.75347E+01-4.09561E+01-2.01506E+02
 -1       260 2.17475E+01-1.07638E+02 3.16881E+02
 -1       261 5.68717E+01-1.07189E+02 2.35625E+02
 -1       262-2.45587E+00-2.83711E+02-3.56736E+02
 -1       263-1.42748E+01 9.10132E+01-5.27597E+01
 -1       264-4.17486E-01 6.97175E+01 1.78831E+02
 -1       265-2.76611E+01 2.33463E+02 2.34238E+02
 -1       266-1.99789E+01 1.73831E+02 9.02735E+01
 -1       267 4.98320E+01 2.01052E+02 2.89590E+02
 -1       268 3.24628E+01 7.61159E+01 2.91526E+02
 -1       269 5.85376E+01 1.49091E+02 1.42687E+02
 -1       270-1.65028E+01 1.94275E+02-1.87590E+01
 -1       271 4.43001E+01-1.29533E+02 5.43997E+01
 -1       272-5.15958E+00 2.16087E+02-1.26738E+02
 -1       273 7.59647E+01-5.72848E+01 1.87032E+02
 -3
    1PSTEP                        26           1           1          
    1PGM                1.000000E+00                                  
    1PGK                1.982231E+12                                  
    1PHID                         -1                                  
    1PSUBC                         0                                  
    1PMODE                         9                                  
  100CL  109 2.24077E+05         273                     2    9MODAL      1
 -4  STRESS      6    1
 -5  SXX         1    4    1    1
 -5  SYY         1    4    2    2
 -5  SZZ         1    4    3    3
 -5  SXY         1    4    1    2
 -5  SYZ         1    4    2    3
 -5  SZX         1    4    3    1
 -1         1-2.23763E+06-3.97097E+06 5.50331E+06 1.70469E+06-7.98331E+05 2.85392E+06
 -1         2 2.40416E+06 2.23752E+06-2.34539E+06 1.36469E+06 1.03894E+06 2.13670E+06
 -1         3 1.84991E+05 4.65255E+06-1.46549E+06 2.09331E+06-1.23236E+06 4.93244E+05
 -1         4 1.32571E+06 1.58064E+06-1.55006E+06-9.30223E+05-1.06067E+06-7.76165E+05
 -1         5-1.10202E+06-4.72296E+05-4.72314E+05 1.30704E+07-7.16961E+00 1.17836E+07
 -1         6-1.44292E+07-6.18396E+06-6.18396E+06-1.12953E+07 6.50876E+00 2.10956E+07
 -1         7 2.65165E+06 1.11747E+06 2.26906E+06 1.65805E+07-2.30551E+05-1.35683E+07
 -1         8 7.83876E+06 2.97821E+06 3.24510E+06-1.63396E+07-7.91422E+04-1.83441E+07
 -1         9 1.19392E+07 5.11681E+06 5.11682E+06-1.66969E+07 4.20094E+00-3.77867E+06
 -1        10 2.57668E+06 2.16890E+06 7.71518E+05-1.33725E+07-2.37664E+05 1.05283E+07
 -1        11 4.82512E+06 7.68899E+05 2.44905E+06-3.15423E+06 7.11966E+05 2.02258E+06
 -1        12 1.10490E+06 2.16235E+06 3.54352E+06 7.71878E+06-1.30224E+06-8.69783E+06
 -1        13 7.76396E+05 2.77231E+07 3.85757E+06 6.17192E+06-3.35619E+06-1.70029E+06
 -1        14 2.37371E+06 2.69932E+07-1.69904E+06 7.76142E+06-8.44888E+06 2.35973E+06
 -1        15-1.06835E+06 3.03130E+06 7.11142E+05-5.40296E+06 5.96769E+05-5.83366E+06
 -1        16 6.03198E+05 4.76684E+06-9.14018E+06 4.91003E+06 1.15471E+05 4.55448E+06
 -1        17-5.13754E+06-2.20179E+06-2.20180E+06 1.89247E+07-8.98097E+00-3.11207E+06
 -1        18-5.82357E+05-1.04536E+06-5.04881E+05 1.51036E+07 3.02224E+05 7.98616E+06
 -1        19-9.32398E+04 1.42215E+06-1.48350E+05-2.17314E+06-1.17312E+06-1.28588E+06
 -1        20-1.51675E+06-2.80576E+06 5.13725E+06-1.21758E+07 8.27255E+05-1.20975E+07
 -1        21-8.13584E+05-7.06849E+06-3.41615E+06-7.25702E+06 1.81381E+06-3.88178E+06
 -1        22 1.35872E+06-3.38927E+07 1.38452E+06-1.22795E+07-9.19191E+05 2.03775E+06
 -1        23 7.41572E+06 1.61389E+06 1.01946E+06 1.82702E+06 5.29543E+05-9.96533E+05
 -1        24 6.10285E+06-1.10128E+06 1.42928E+06-9.24058E+06-1.13428E+06 9.62679E+06
 -1        25-1.85489E+06-9.96876E+05 3.69212E+07 3.85596E+06 2.30262E+06-1.16952E+07
 -1        26-1.50365E+06-5.97233E+05 9.83485E+06-3.25722E+06-2.32173E+06-4.03116E+06
 -1        27 3.74021E+06 1.59504E+04 1.94195E+06 9.13892E+06-7.73397E+05 1.52914E+07
 -1        28 5.42113E+06 1.96265E+06 2.77514E+06-6.54519E+05 3.05054E+02 2.12142E+07
 -1        29 2.85860E+06 5.79544E+06-3.14461E+07 5.97776E+06 6.05579E+06 7.29411E+06
 -1        30 9.43237E+05-1.20875E+06-2.46293E+07-1.12948E+06 2.57844E+06 3.02773E+06
 -1        31 2.65417E+06 2.14734E+06 1.01299E+06 1.09727E+07-4.11527E+05-1.48279E+07
 -1        32-1.06617E+07-3.53224E+06-3.78596E+06-2.27349E+06-1.65507E+05-1.89244E+07
 -1        33 7.92560E+06 9.53095E+06 1.44552E+06-1.04588E+07 1.41912E+05 8.83306E+05
 -1        34 1.39408E+07 1.35227E+07 2.95252E+06 8.93306E+06-1.07395E+06-7.90911E+05
 -1        35-7.44319E+04 2.57314E+07-2.78262E+05 1.12680E+07 9.58239E+04 3.35594E+06
 -1        36 6.88605E+05-8.54888E+06-5.60423E+04 4.90703E+06 4.46496E+06 6.43143E+05
 -1        37-1.14819E+07-1.37086E+07-2.66917E+05-1.75604E+07 2.17307E+06-7.55253E+05
 -1        38 7.03149E+06-1.67966E+07 2.08283E+06-2.47386E+07 5.66671E+06 1.20899E+06
 -1        39 1.08963E+07 4.08718E+06 1.47158E+07-7.78476E+05-3.91588E+05-2.02072E+07
 -1        40-1.65544E+06 2.97932E+05 2.74374E+07 1.38049E+06-3.28956E+06-2.35321E+07
 -1        41-5.15773E+05-1.64540E+06 1.59480E+07 1.17708E+06-3.21779E+06-3.87557E+06
 -1        42-1.06153E+07-2.68782E+06-5.05406E+06 2.10957E+06 3.72226E+06-2.69320E+06
 -1        43-4.30760E+06-1.32040E+06-2.79195E+07 8.49406E+05 3.51159E+06 1.71194E+07
 -1        44-3.53509E+06 7.66044E+05-1.41618E+07 4.88834E+05 2.07158E+06-4.46718E+06
 -1        45-8.35813E+05-8.49058E+05-1.52826E+07-4.82669E+05 1.04624E+07-7.20582E+05
 -1        46-2.57555E+05 6.95294E+06-6.84362E+06 8.38862E+05-5.52803E+06 8.12900E+05
 -1        47-2.98856E+06 4.38767E+06 1.84962E+06-6.37460E+05-4.04867E+06-9.67750E+05
 -1        48-3.67442E+06-1.60457E+06-8.34206E+05 9.85655E+06 3.22940E+05-1.25275E+06
 -1        49-3.38967E+05 7.36171E+05 1.07998E+06-2.62240E+06 1.28297E+04-1.75118E+06
 -1        50 3.39082E+06 2.13269E+06 3.34436E+04 8.67395E+06-5.16294E+05 1.27967E+07
 -1        51 6.41039E+04-1.49361E+06 6.53092E+06-4.13843E+06 1.14261E+06-7.29135E+06
 -1        52-1.45389E+06 1.21530E+07-2.06562E+06 4.32180E+06-2.81790E+06 1.61719E+06
 -1        53-2.56753E+06-4.17839E+06-3.75550E+06-4.06168E+06 8.80657E+06 4.05892E+06
 -1        54 5.53572E+05 1.59248E+06-1.32777E+06 3.27583E+06 4.30310E+05 3.53024E+06
 -1        55 1.23175E+07 5.27893E+06 5.27894E+06-1.71129E+07 1.96857E+00-1.11133E+07
 -1        56 7.79939E+06 3.34259E+06 3.34261E+06-1.56565E+07 6.43331E+00 2.52389E+06
 -1        57-1.45575E+07-6.23893E+06-6.23893E+06-1.15752E+07 6.50876E+00 1.74259E+07
 -1        58-3.08587E+06-5.82407E+05-1.15484E+06-8.60312E+06-1.18870E+06 1.09101E+07
 -1        59 7.30279E+06 9.24156E+05 3.97206E+06 4.49369E+06-1.65192E+05-6.24651E+06
 -1        60 2.36157E+06 3.24708E+06 2.59456E+06 4.54860E+06-6.78387E+04-3.31225E+06
 -1        61 8.28337E+05 1.37393E+07 1.83832E+06 2.40629E+06-2.76674E+06-2.10411E+06
 -1        62 4.44280E+06 3.49251E+07 4.25765E+06 9.22314E+06-6.81844E+06-6.07651E+05
 -1        63 1.80856E+06 1.28375E+07-4.17850E+06 4.58287E+06-2.83574E+06 3.53865E+06
 -1        64 2.38697E+05 1.29112E+06 8.50930E+05-1.08817E+07-1.33355E+05-1.36271E+07
 -1        65-3.32289E+05 2.24890E+06-2.95039E+06-3.22940E+05 1.26453E+06 1.71886E+05
 -1        66-1.93029E+06 2.04152E+06-3.67591E+06 2.97177E+06 5.14107E+03 2.82711E+06
 -1        67-1.06562E+07-4.56695E+06-4.56696E+06 1.96617E+07-9.41629E+00-8.96208E+06
 -1        68-3.88498E+06-1.66497E+06-1.66499E+06 1.73205E+07-8.24694E+00 2.11447E+06
 -1        69 2.52673E+06 1.08289E+06 1.08287E+06 1.34499E+07-7.16961E+00 1.02950E+07
 -1        70-1.68952E+05 9.78498E+04 3.53259E+06 5.00597E+06 1.30939E+06 6.72582E+06
 -1        71 6.47732E+04 1.16807E+06 2.62526E+06-1.11360E+07-2.05356E+06-9.50162E+06
 -1        72-1.89197E+06-2.59942E+06 2.96130E+06-5.01481E+06-2.34199E+03-3.89271E+06
 -1        73-1.82821E+06 7.15046E+05-1.55636E+06-2.97036E+06 1.17315E+06-2.16750E+06
 -1        74-2.15437E+06-3.27147E+07-2.70201E+06-9.58874E+06-2.26953E+06-2.58367E+06
 -1        75 1.32911E+06-1.72367E+07 2.13821E+06-5.61947E+06 2.84633E+05 4.21991E+06
 -1        76 3.32814E+06-2.17233E+05 2.01630E+06 1.12316E+07-1.00452E+06-7.46964E+06
 -1        77 2.02626E+06 1.00078E+06 1.36690E+06-4.31777E+06-1.12181E+06 5.31142E+06
 -1        78 5.71240E+06-2.61809E+05-4.82542E+05-4.25838E+06-1.51749E+06 4.20079E+06
 -1        79-3.97087E+06-1.93924E+06 2.01748E+07 4.57857E+06-2.55642E+05-4.14120E+06
 -1        80 1.37206E+06 7.67719E+05 3.11965E+07-1.21867E+06 7.01510E+05-8.11817E+06
 -1        81 4.18248E+04-1.47398E+06 1.98687E+06-1.48069E+06-1.59744E+06-1.72582E+06
 -1        82-1.84648E+06-7.91351E+05-7.91370E+05 1.30052E+07-7.16961E+00 1.31422E+07
 -1        83 2.25509E+06 9.66511E+05 9.66447E+05 2.81075E+06 2.39451E+00 1.79696E+07
 -1        84-2.70128E+05-1.15773E+05-1.15770E+05-6.65689E+06 6.50876E+00 2.11164E+07
 -1        85 3.44250E+06 6.32644E+06-1.48561E+07 5.26038E+06 2.25816E+06 4.10299E+06
 -1        86 7.04427E+05 2.50256E+06-4.02431E+07 2.74060E+06 5.81442E+06 8.42049E+06
 -1        87-1.16882E+06-2.84641E+06-1.04788E+07-3.25308E+06 5.77188E+05-1.92207E+05
 -1        88 2.73273E+06 2.96320E+06 1.70878E+06 1.38027E+07 4.48945E+05-1.49600E+07
 -1        89-2.85302E+06-1.22277E+06-1.22271E+06 3.02993E+06-8.08548E+00-1.67809E+07
 -1        90-5.45717E+06-2.13844E+06-2.27868E+06-9.30243E+06 1.81860E+05-1.80486E+07
 -1        91 8.47725E+06 5.44819E+06 2.50509E+06-1.41392E+07 2.61407E+05-8.40493E+06
 -1        92 4.91216E+06 8.33788E+06 2.59390E+06-8.81453E+06 1.02144E+05-2.03884E+06
 -1        93 1.00617E+07 5.20665E+06 2.15204E+06-1.41117E+07-7.67218E+05-1.48808E+06
 -1        94 7.18261E+06 6.81295E+06 2.13221E+06-1.28611E+07-1.05074E+06 4.70542E+06
 -1        95-1.19413E+05-3.17425E+05-1.21140E+06-9.72971E+06-6.10808E+05 6.58068E+06
 -1        96 1.46087E+07 6.40540E+06 1.90381E+06 1.67259E+06 3.34901E+05 2.33530E+05
 -1        97 9.85773E+06 8.16478E+06 2.22790E+06 1.03908E+07-4.48600E+05-4.45621E+06
 -1        98 4.72123E+05 1.24150E+07 1.11468E+05 7.18023E+06-4.33416E+06-2.09271E+06
 -1        99-2.40146E+06 1.49927E+07-2.41080E+06 5.55660E+06-1.30629E+06 1.55277E+06
 -1       100 4.10869E+06 3.01665E+07 2.65494E+06 1.36520E+07-3.06048E+06-5.09218E+04
 -1       101 1.06679E+06 3.13795E+07 1.19901E+06 1.08198E+07 2.39427E+03 7.71369E+05
 -1       102-7.47192E+05 1.55363E+07-4.13419E+06 7.96689E+06-2.53021E+05 3.76620E+06
 -1       103-6.34359E+06 1.20150E+07-2.08128E+06 3.19124E+06-1.88799E+05 1.81247E+06
 -1       104 9.14476E+06 9.00536E+06 2.36569E+06-6.45406E+06-6.08038E+05 3.85362E+06
 -1       105 7.15695E+06 1.83122E+07 1.50459E+06 1.32663E+07-3.21394E+06-2.04067E+06
 -1       106 3.28743E+05 1.59609E+07-1.27350E+06 1.38167E+06 2.75998E+04 2.28209E+06
 -1       107 7.50363E+06 2.19053E+07 2.14917E+06 1.17061E+07-1.72634E+06 1.26232E+06
 -1       108 1.06742E+07 1.45018E+07 3.41598E+06-1.17197E+06 1.58721E+05-9.15009E+05
 -1       109 2.17586E+06-3.88726E+06 1.01058E+06 1.30834E+07 1.17810E+06-4.79306E+06
 -1       110-2.48230E+06-3.15915E+06-8.09955E+05 1.22961E+07 1.64020E+06-4.65731E+05
 -1       111-2.11543E+06-4.62153E+06-4.40555E+05 1.04325E+07 2.62776E+06 4.40017E+06
 -1       112-2.25661E+06 5.39823E+05 1.89512E+06 6.30809E+06 1.05992E+06 3.08775E+06
 -1       113-1.39092E+07-1.22630E+07 7.55674E+03-2.08957E+07 3.11534E+06-5.11871E+06
 -1       114-9.77413E+06-6.98729E+06-2.55686E+06-8.43678E+06-1.40523E+05-6.71670E+05
 -1       115 1.92612E+06-1.75905E+07 8.38573E+05-1.30768E+07 2.27311E+05-3.34649E+06
 -1       116 4.30084E+06-3.94123E+06-5.72272E+05-9.54568E+06 8.22370E+05 1.44278E+06
 -1       117 2.79046E+06-1.11867E+07 9.55907E+05-1.75199E+07 3.75537E+06-1.44470E+06
 -1       118-1.82346E+05-2.85099E+07 4.43084E+05-2.21977E+07 1.46831E+06 1.37857E+06
 -1       119 9.08842E+06-7.25630E+06 5.05147E+06-1.76852E+07 2.54778E+06 4.36679E+06
 -1       120 1.27809E+07-6.77440E+06 1.39560E+06-1.18370E+07 2.33918E+06 3.34015E+05
 -1       121 6.81013E+06-6.44978E+06 3.61620E+05 4.47984E+06 7.41942E+05-7.60547E+05
 -1       122-7.43139E+06-5.99553E+06 1.37906E+06 1.95137E+06 8.45896E+05 3.00264E+06
 -1       123-4.27214E+06-2.47836E+07 1.07172E+05-2.51812E+07 1.56091E+06 9.46167E+04
 -1       124 6.63112E+06-1.55693E+07-1.16903E+05-1.08178E+07 4.51764E+06-9.62955E+05
 -1       125-5.14548E+06-1.26445E+07 1.34853E+05-6.94903E+06 4.47307E+06-7.40914E+05
 -1       126-8.27314E+05-1.81141E+07-3.58943E+05-2.67949E+07 4.75045E+06 4.39157E+05
 -1       127 1.19706E+06 1.07413E+06 4.16490E+05 3.93196E+06-1.57933E+05 7.61568E+06
 -1       128 1.23589E+07 3.07353E+06 7.47959E+06 1.21112E+06-2.02219E+06-1.01866E+07
 -1       129 9.11030E+06 1.06739E+06 1.33013E+07-5.78915E+06-3.19645E+05-2.04971E+07
 -1       130-2.89354E+06-8.56661E+05 1.99616E+07-2.23640E+06 1.28201E+06-1.18302E+07
 -1       131 1.27850E+06 2.08715E+05 3.49898E+07 2.43980E+06 5.36829E+05-1.98211E+07
 -1       132-1.77114E+06 6.79097E+05 1.89547E+07-7.68746E+05-1.94638E+06-1.26933E+07
 -1       133-1.21924E+06-5.43162E+05 7.87084E+06 1.15477E+06-2.21137E+06-7.24047E+06
 -1       134 4.47777E+06 3.29543E+06 3.40069E+06-2.06357E+06-6.82932E+05 1.26240E+07
 -1       135-5.44259E+06-2.57481E+06 7.82210E+06 4.17050E+06-2.67497E+06-8.36113E+06
 -1       136-5.36932E+05-1.69880E+06 6.92342E+06-1.74778E+04-4.53462E+05 1.85100E+06
 -1       137 2.19450E+06 3.72166E+04 6.28536E+06 8.24457E+04-1.31853E+06 1.13362E+07
 -1       138 4.16440E+06-8.29014E+05 1.02452E+07 3.52355E+06-1.34321E+06 7.16821E+06
 -1       139 4.60079E+06 8.74832E+05 2.60164E+07-1.69209E+05-3.18282E+05-2.39139E+07
 -1       140-1.05456E+06-5.11221E+05 1.39184E+07 3.72117E+06-3.83804E+06-1.59461E+07
 -1       141 8.39658E+06 1.83188E+06 7.81096E+06 3.09472E+06 1.72841E+05 6.65655E+05
 -1       142 5.79703E+06 2.88646E+06 1.98493E+07-1.14188E+06-7.27666E+05-1.33247E+07
 -1       143-2.27692E+06-1.52882E+06 2.41768E+07 5.81744E+05-3.02591E+06-1.77337E+07
 -1       144 6.32076E+06 3.73674E+06 2.72794E+07 7.93398E+05-3.26891E+06-2.75816E+07
 -1       145-8.21224E+05-1.19422E+06 8.02982E+04 7.01951E+06 1.27782E+06-1.09657E+07
 -1       146-3.66789E+06-3.15496E+05-2.85420E+06 2.11646E+06 2.94986E+06-1.90467E+06
 -1       147-1.05717E+07-1.79519E+06-3.82873E+06-1.29105E+06 3.19780E+05 6.44684E+06
 -1       148 6.72532E+06 2.51577E+06-1.39295E+07-7.65755E+05 2.37088E+06 8.66481E+06
 -1       149 1.98718E+06-1.47423E+05-3.10707E+07 8.40059E+05 2.77579E+06 1.09456E+07
 -1       150-2.13887E+06 2.55042E+06-3.19250E+07 3.66726E+06 5.23553E+06 1.36740E+07
 -1       151-6.43000E+05 3.17672E+05-1.56730E+07 1.19206E+06 1.46326E+06 3.08820E+06
 -1       152-5.07416E+06 7.68914E+05-1.29413E+06-3.86286E+06-1.67175E+05-1.51129E+07
 -1       153-1.30271E+06 1.45700E+06-6.74507E+06-2.06271E+06 1.67191E+06-5.50476E+06
 -1       154 5.21097E+06 2.18729E+06-1.20943E+07 2.31257E+06 8.34770E+05 1.16841E+06
 -1       155-7.93962E+06-6.39683E+05-7.56515E+06-8.13798E+05 7.95597E+05-1.47228E+07
 -1       156-4.36300E+06 4.62499E+05-6.58128E+06 3.66045E+06 7.05811E+05-1.29059E+07
 -1       157-4.93864E+05 1.23501E+06-1.43319E+07-1.13612E+06 2.08688E+06 1.59436E+07
 -1       158-1.46290E+06 3.35999E+05-2.27285E+07 1.71718E+06 8.90810E+05 1.15864E+07
 -1       159-2.41984E+06-5.60878E+05-1.17464E+06 6.06181E+06 1.28493E+06-1.17819E+07
 -1       160-8.91004E+06-9.78099E+05-1.11934E+07 1.18848E+06 4.05997E+06-3.82916E+06
 -1       161-1.08309E+07-2.15622E+05-1.58204E+07 1.43465E+06 2.80678E+06 1.04019E+07
 -1       162-4.47225E+06-2.22090E+06-2.24647E+07 1.20317E+06 1.81760E+06 8.64762E+06
 -1       163 2.24388E+06 1.39725E+06-1.61980E+07 4.83176E+04 3.87504E+06 1.37396E+06
 -1       164 1.90247E+05 1.69126E+06-2.38174E+07 1.06662E+06 1.04193E+07 1.57180E+06
 -1       165-1.02703E+06-7.91194E+05-2.41021E+07-7.04022E+05 7.44168E+06 1.84587E+06
 -1       166-1.69588E+06 8.89243E+06-6.90328E+06 6.46932E+05-1.03296E+06-1.00942E+06
 -1       167 1.31820E+06 1.73776E+07-2.23120E+05 3.61148E+06-4.84030E+06-6.47327E+05
 -1       168 1.47609E+06 2.32293E+07-2.56579E+06 3.87686E+06-8.64065E+06 1.21995E+06
 -1       169-2.25152E+05 9.47588E+06 1.64648E+06 1.22486E+06-5.07580E+06 6.27083E+05
 -1       170-9.66132E+05-1.69449E+07 1.76189E+07-2.04801E+06 9.37068E+05-2.62693E+06
 -1       171-2.15410E+06 2.96517E+06 3.93389E+06-1.84099E+06-3.78182E+06-6.43355E+05
 -1       172-1.18283E+06 8.24128E+05 2.02043E+07 2.35560E+05 1.10136E+06-4.48418E+06
 -1       173-1.36228E+06-1.34723E+07 5.55945E+06-3.29387E+06 6.68767E+04-6.98826E+04
 -1       174 7.50820E+05-1.48929E+07-5.10178E+06-3.57311E+06 3.06601E+06 4.94113E+04
 -1       175-1.60686E+05-1.89387E+06-8.86979E+06-1.77638E+06 7.05443E+06-1.51002E+06
 -1       176-1.01145E+06 3.46998E+06-1.33006E+07-2.25398E+05-6.69516E+05 2.80966E+06
 -1       177-1.01905E+06 2.55570E+06-1.14360E+07-3.60325E+05 3.18950E+06 7.26162E+05
 -1       178 8.64344E+05 1.75930E+07-1.42291E+06 1.94544E+06-9.24672E+06 1.29344E+06
 -1       179-1.22619E+06 4.43693E+06-3.43922E+06-5.06707E+05-6.12442E+06-1.23216E+06
 -1       180-1.63483E+06-4.29011E+04-4.63548E+06 8.90600E+04 2.39058E+06-6.11523E+05
 -1       181-2.78791E+06-1.19481E+06-1.19482E+06 1.60868E+07-9.34799E+00-8.52059E+06
 -1       182-4.88442E+06-2.09337E+06-2.09332E+06 3.71221E+06-8.71911E+00-1.00353E+07
 -1       183-2.00105E+05-8.66500E+03-3.97280E+05 1.04928E+07-4.98873E+05-8.66223E+06
 -1       184 5.72925E+06 2.45539E+06 2.45540E+06-1.07212E+07-1.15783E+00-9.70509E+06
 -1       185 5.35094E+06 2.29326E+06 2.29327E+06-1.03052E+07 4.20094E+00-2.37049E+06
 -1       186 3.28236E+06 2.83259E+06 1.68040E+06-7.41570E+06-5.37733E+05 3.97123E+06
 -1       187 1.66382E+06-5.69906E+05-1.64811E+04-6.39948E+06-5.59318E+05 1.73305E+07
 -1       188 2.62598E+06 8.69414E+05 4.48718E+05 1.32633E+07 2.34016E+05 1.13840E+07
 -1       189 3.45943E+06-1.25803E+06 1.48681E+06 9.46017E+06-1.60414E+06 1.50580E+07
 -1       190 5.67748E+06 2.43323E+06 2.43319E+06 2.10427E+06 1.13950E+01 1.68318E+07
 -1       191-4.09040E+05 1.23890E+06 1.88989E+05 1.36063E+07 3.93877E+05 1.02776E+07
 -1       192-5.09732E+06-2.18455E+06-2.18457E+06 1.48180E+07-8.76331E+00-2.23952E+06
 -1       193-3.99342E+06-9.13672E+05 3.13352E+05-3.04600E+06-5.32956E+05-1.05768E+07
 -1       194 6.89094E+06 2.69910E+06 3.00220E+06-1.95534E+06 1.20320E+06 1.17216E+07
 -1       195-3.84476E+06-1.64775E+06-1.64776E+06 1.32138E+07-1.25358E+01 2.98701E+06
 -1       196-2.53642E+06-6.56208E+05-9.74560E+05 8.39023E+06-3.18134E+05 5.23116E+06
 -1       197-2.52077E+06-1.20100E+06-1.08847E+06 3.80518E+06 6.54199E+05-1.36927E+06
 -1       198 1.58545E+06 6.79480E+05 6.79471E+05 2.42702E+06-4.29327E+00 4.15689E+06
 -1       199 3.49548E+05 1.04398E+07-5.73719E+06 4.81921E+06 1.47127E+05 3.81191E+06
 -1       200 9.98302E+05 2.10942E+07-4.88472E+05 5.50456E+06-1.96276E+06 4.75754E+05
 -1       201 3.82933E+05 2.05223E+07-6.63185E+05 8.48497E+06 2.90577E+05 2.40189E+06
 -1       202 2.65400E+05 7.37685E+06-1.20548E+07 1.60560E+06 8.64809E+05 2.43061E+06
 -1       203-9.11134E+05 9.16026E+06-4.56844E+06 2.56536E+06-4.06987E+06 6.41176E+05
 -1       204 1.67908E+06-7.53434E+06-7.43342E+06-1.17273E+07 8.36794E+06 7.30898E+05
 -1       205 4.37458E+06-4.30832E+06-1.18650E+07-9.31014E+06 5.95971E+06 3.29740E+06
 -1       206-2.18692E+06-2.12012E+06 2.04912E+07-8.56957E+05 1.81905E+06-9.92994E+06
 -1       207 9.48872E+05-1.68002E+07 3.55571E+06-8.74631E+06 5.84481E+05-2.28587E+06
 -1       208-2.05476E+06 8.28780E+05 4.63390E+06-2.48436E+06-5.90774E+05-4.37530E+06
 -1       209-1.68677E+06 6.09133E+06-3.18270E+06 3.35855E+06-1.69240E+06 2.93050E+06
 -1       210-3.68947E+05 4.55528E+06 2.00238E+06 4.12396E+05-2.55526E+06-3.92926E+06
 -1       211-7.68868E+05 5.46993E+06 9.26078E+06 3.62061E+06-4.82157E+06-4.12912E+06
 -1       212 5.22719E+05 1.16100E+06 2.56484E+06 6.19287E+05 1.31375E+06-1.31959E+06
 -1       213 1.73348E+06 2.17095E+06 7.45254E+06 3.06744E+06-3.85057E+06-3.76494E+04
 -1       214 5.64616E+05-6.83439E+05 1.53853E+07-3.24996E+05-3.81213E+05-9.59244E+06
 -1       215-1.00851E+06-6.15188E+05-1.14019E+06 2.90212E+05 5.73653E+06 2.66091E+06
 -1       216-1.23791E+06 1.24347E+06-7.65568E+06 1.67843E+06 9.57021E+05 1.26633E+05
 -1       217-2.12593E+06 3.53720E+06-5.03717E+06 1.45377E+05 5.41470E+06 2.81023E+06
 -1       218-6.18145E+05 5.72815E+06-9.53162E+06 2.46658E+06 1.16233E+06 2.32491E+06
 -1       219-1.73295E+06 6.37674E+03-8.26774E+06-3.03349E+05 4.33760E+06 2.18479E+06
 -1       220-2.51367E+06-2.06021E+06-5.52276E+04-3.97918E+06 5.70941E+06-7.40896E+05
 -1       221-1.01527E+05 1.08444E+06 3.73835E+06 1.29189E+06 2.27011E+05-5.34769E+06
 -1       222 5.18113E+06 1.14329E+06 1.16354E+07-2.84674E+06-2.67141E+05-1.69253E+07
 -1       223-2.61001E+06-3.31679E+06 2.54804E+06-4.49437E+04-6.46768E+04 6.55284E+06
 -1       224-1.42642E+06-5.25690E+06 3.93210E+06-6.54818E+06 1.10694E+06-8.32302E+06
 -1       225-4.87155E+06-8.32121E+06 1.98711E+06-1.46655E+07 1.79042E+06-3.58951E+06
 -1       226-7.77724E+05-3.17547E+06 6.39336E+06-7.83059E+06 1.19295E+06-9.97869E+06
 -1       227-2.95745E+06-7.12984E+06-1.96103E+06 3.73430E+06 3.80778E+06-2.00943E+06
 -1       228-2.67829E+06-5.07485E+06 8.33147E+05-5.14175E+06 2.46083E+06 6.68850E+05
 -1       229-4.08959E+06-9.05307E+06-3.07112E+05-1.22605E+07 4.90291E+06 2.14013E+06
 -1       230 1.62573E+06-1.11850E+07-1.83296E+06-1.37432E+07 7.44681E+06 3.44606E+06
 -1       231-2.43746E+05-8.86896E+06-1.44130E+06-2.52108E+06 6.41871E+06 1.19736E+06
 -1       232-1.30026E+06-6.67716E+05 1.86037E+07-1.01843E+06-1.30420E+06-1.70350E+07
 -1       233-6.63299E+05-8.18858E+06-1.64075E+06-9.10506E+06 4.13464E+06 1.13437E+06
 -1       234 1.69436E+06-7.01543E+06-1.12357E+07-9.35446E+06 5.36655E+06 9.61456E+06
 -1       235-5.76461E+06-3.69731E+06-4.11965E+06-1.80463E+06 5.12096E+06 2.79427E+06
 -1       236-2.65568E+06-3.38587E+06-1.45243E+07-1.66285E+06 6.17349E+06 9.49123E+06
 -1       237 5.59886E+05-2.09001E+06-4.84527E+06-2.14363E+06 4.62944E+06-2.76772E+06
 -1       238 9.45697E+05-1.11045E+07 1.45341E+06-1.56185E+07 4.12793E+06-1.18289E+06
 -1       239-4.05566E+06-1.32665E+06-8.62634E+05 6.49216E+06 2.78636E+06-4.58917E+06
 -1       240-4.82140E+06 3.19511E+05-5.16100E+06 4.61053E+06 1.74360E+06-5.30957E+06
 -1       241-8.55733E+05 1.03134E+07 9.28344E+06 3.45031E+06-6.29337E+06-7.99886E+06
 -1       242-2.84882E+06 3.56215E+06 1.35640E+07 1.15659E+05-3.22207E+06-1.08665E+07
 -1       243-1.71844E+06 5.77250E+06 1.06154E+07 2.51424E+06-5.48374E+06-1.07403E+07
 -1       244-1.47314E+05 2.04719E+07-1.16575E+06 6.10356E+06-6.89727E+06 1.18657E+06
 -1       245-2.17852E+06 6.95921E+06 3.06577E+05 1.43060E+06-5.79811E+06-1.32373E+06
 -1       246 4.43041E+06 4.24982E+06 1.24389E+06-7.11041E+06-3.38476E+05-4.25844E+05
 -1       247 4.35589E+06 4.91176E+06-4.45437E+05-3.03417E+06-5.79450E+04 1.52243E+06
 -1       248 5.52919E+05 1.12015E+06-7.87023E+04 9.76903E+05 6.26117E+04 2.08355E+06
 -1       249 3.40879E+06 3.35663E+06 2.28095E+06-4.16426E+06-8.77640E+05 6.81717E+06
 -1       250-1.06303E+06 3.24763E+06-6.26440E+05-7.07091E+06 3.04412E+05-8.51583E+06
 -1       251-1.63519E+06 4.22297E+06-7.42953E+06 6.29825E+05 3.66435E+06 1.05899E+05
 -1       252-1.67779E+06-2.97938E+06-1.06820E+07-3.58577E+06 1.05096E+07 2.04384E+06
 -1       253-1.56760E+06-6.62417E+05-1.34214E+06 2.66082E+06 4.12273E+06-2.75585E+05
 -1       254 1.91238E+05-3.95915E+06-6.83601E+05 3.37008E+06 5.23905E+06 1.28444E+06
 -1       255 4.52485E+06 3.85216E+06 6.92822E+06 4.39535E+06-2.80250E+06-1.26371E+06
 -1       256-5.95099E+04 1.14541E+07-7.72217E+06 4.31580E+06 7.50550E+05 1.08486E+06
 -1       257 2.14126E+06 3.24072E+06-7.39606E+05 5.35975E+06 2.15473E+05 7.68709E+06
 -1       258-1.60694E+06-9.30280E+05-7.62650E+05 5.83519E+06 1.49079E+06 2.29608E+06
 -1       259-2.81308E+06 1.90664E+06-4.08682E+06-7.12484E+05 1.37018E+06-5.78322E+06
 -1       260 2.24801E+06 7.47971E+05 4.75238E+06-6.17325E+06-1.93098E+06 6.83953E+06
 -1       261 6.36535E+06 7.03127E+06 1.49222E+06 4.66825E+06-1.71740E+06 7.40865E+05
 -1       262 7.03090E+05 5.32778E+06-6.68450E+06-4.34941E+06 1.22589E+06-2.68854E+06
 -1       263-3.38820E+06 3.94071E+06-1.50666E+07 7.94250E+05 1.48573E+06 9.01634E+06
 -1       264-1.86802E+06-1.06059E+06-2.15689E+07-1.04873E+06 7.82041E+06 6.91871E+06
 -1       265-2.63949E+06-2.61409E+06 2.15997E+06 1.26520E+06 1.04397E+06 5.21319E+06
 -1       266 6.56203E+05 4.57348E+05 5.12581E+05 7.78051E+06 3.10952E+06 6.11230E+06
 -1       267 4.76689E+06 5.50781E+05 4.54605E+06 3.85064E+06-6.52529E+05 1.55688E+06
 -1       268 3.41325E+06-1.18651E+06 5.75173E+06 3.46528E+06-2.83362E+06 7.17484E+06
 -1       269 1.85372E+05 9.06625E+06 1.70431E+06 6.89854E+06-4.08305E+06-3.03551E+06
 -1       270-2.30610E+06-2.62998E+06-4.79505E+05 8.43629E+06 2.56083E+06-1.59635E+05
 -1       271 5.13077E+05 1.06809E+07-2.65506E+06 5.44320E+06-4.94806E+05 2.98981E+06
 -1       272 1.08558E+06-1.50852E+06 6.03658E+05 9.77598E+06 1.95745E+06-5.61908E+06
 -1       273 4.04333E+06 1.29105E+07 6.00576E+05 8.88184E+06-3.42589E+06 6.23362E+05
 -3
    1PSTEP                        27           1           1          
    1PGM                1.000000E+00                                  
    1PGK                1.982231E+12                                  
    1PHID                         -1                                  
    1PSUBC                         0                                  
    1PMODE                         9                                  
  100CL  109 2.24077E+05         273                     2    9MODAL      1
 -4  TOSTRAIN    6    1
 -5  EXX         1    4    1    1
 -5  EYY         1    4    2    2
 -5  EZZ         1    4    3    3
 -5  EXY         1    4    1    2
 -5  EYZ         1    4    2    3
 -5  EZX         1    4    3    1
 -1         1-1.34867E+01-2.47534E+01 3.68295E+01 1.10805E+01-5.18915E+00 1.85505E+01
 -1         2 1.21826E+01 1.10994E+01-1.86895E+01 8.87046E+00 6.75310E+00 1.38885E+01
 -1         3-3.85564E+00 2.51835E+01-1.45837E+01 1.36065E+01-8.01033E+00 3.20608E+00
 -1         4 6.58269E+00 8.23971E+00-1.21098E+01-6.04645E+00-6.89434E+00-5.04507E+00
 -1         5-4.09319E+00 2.49477E-05-9.72983E-05 8.49579E+01-4.66025E-05 7.65935E+01
 -1         6-5.35943E+01-1.88853E-05 1.48821E-06-7.34195E+01 4.23069E-05 1.37121E+02
 -1         7 8.17846E+00-1.79374E+00 5.69163E+00 1.07773E+02-1.49858E+00-8.81942E+01
 -1         8 2.98588E+01-1.73475E+00 4.22132E-05-1.06207E+02-5.14424E-01-1.19237E+02
 -1         9 4.43457E+01-4.22306E-05 6.64859E-05-1.08530E+02 2.73061E-05-2.45614E+01
 -1        10 8.47275E+00 5.82221E+00-3.26077E+00-8.69215E+01-1.54482E+00 6.84342E+01
 -1        11 1.92987E+01-7.06675E+00 3.85421E+00-2.05025E+01 4.62778E+00 1.31467E+01
 -1        12-3.03428E+00 3.83910E+00 1.28167E+01 5.01721E+01-8.46457E+00-5.65359E+01
 -1        13-4.34890E+01 1.31664E+02-2.34613E+01 4.01175E+01-2.18152E+01-1.10519E+01
 -1        14-2.60727E+01 1.33954E+02-5.25456E+01 5.04492E+01-5.49177E+01 1.53382E+01
 -1        15-1.09554E+01 1.56923E+01 6.11271E-01-3.51192E+01 3.87900E+00-3.79188E+01
 -1        16 9.57601E+00 3.66396E+01-5.37559E+01 3.19152E+01 7.50561E-01 2.96041E+01
 -1        17-1.90823E+01 5.94501E-05-2.41603E-05 1.23010E+02-5.83763E-05-2.02284E+01
 -1        18-5.86428E-01-3.59593E+00-8.28334E-02 9.81732E+01 1.96446E+00 5.19101E+01
 -1        19-2.37690E+00 7.47315E+00-2.73512E+00-1.41254E+01-7.62526E+00-8.35825E+00
 -1        20-1.10810E+01-1.94595E+01 3.21700E+01-7.91426E+01 5.37716E+00-7.86341E+01
 -1        21 1.16590E+01-2.89978E+01-5.25765E+00-4.71706E+01 1.17897E+01-2.52316E+01
 -1        22 5.55559E+01-1.73578E+02 5.57236E+01-7.98168E+01-5.97474E+00 1.32454E+01
 -1        23 3.31286E+01-4.58334E+00-8.44709E+00 1.18756E+01 3.44203E+00-6.47746E+00
 -1        24 3.00222E+01-1.68046E+01-3.55927E-01-6.00638E+01-7.37284E+00 6.25741E+01
 -1        25-6.31610E+01-5.75839E+01 1.88884E+02 2.50638E+01 1.49670E+01-7.60186E+01
 -1        26-2.13747E+01-1.54830E+01 5.23256E+01-2.11720E+01-1.50913E+01-2.62026E+01
 -1        27 1.57642E+01-8.44350E+00 4.07553E+00 5.94030E+01-5.02708E+00 9.93944E+01
 -1        28 1.99990E+01-2.48117E+00 2.80002E+00-4.25438E+00 1.98285E-03 1.37892E+02
 -1        29 5.27690E+01 7.18585E+01-1.70212E+02 3.88554E+01 3.93626E+01 4.74117E+01
 -1        30 4.34733E+01 2.94854E+01-1.22748E+02-7.34165E+00 1.67598E+01 1.96803E+01
 -1        31 8.53036E+00 5.23594E+00-2.13732E+00 7.13227E+01-2.67493E+00-9.63816E+01
 -1        32-4.23311E+01 4.01027E+00 2.36109E+00-1.47777E+01-1.07580E+00-1.23008E+02
 -1        33 2.31633E+01 3.35980E+01-1.89572E+01-6.79820E+01 9.22426E-01 5.74149E+00
 -1        34 4.49913E+01 4.22734E+01-2.64326E+01 5.80649E+01-6.98067E+00-5.14092E+00
 -1        35-3.85519E+01 1.29186E+02-3.98768E+01 7.32422E+01 6.22855E-01 2.18136E+01
 -1        36 1.63504E+01-4.36932E+01 1.15102E+01 3.18957E+01 2.90222E+01 4.18043E+00
 -1        37-3.64460E+01-5.09201E+01 3.64512E+01-1.14142E+02 1.41249E+01-4.90914E+00
 -1        38 5.72281E+01-9.76545E+01 2.50618E+01-1.60801E+02 3.68336E+01 7.85846E+00
 -1        39 2.62773E+01-1.79822E+01 5.11035E+01-5.06010E+00-2.54532E+00-1.31347E+02
 -1        40-4.98802E+01-3.71833E+01 1.39223E+02 8.97319E+00-2.13822E+01-1.52958E+02
 -1        41-2.40328E+01-3.13754E+01 8.29820E+01 7.65099E+00-2.09156E+01-2.51912E+01
 -1        42-4.14635E+01 1.00649E+01-5.31568E+00 1.37122E+01 2.41947E+01-1.75058E+01
 -1        43 2.23218E+01 4.17386E+01-1.31155E+02 5.52114E+00 2.28253E+01 1.11276E+02
 -1        44 2.41822E+00 3.03756E+01-6.66555E+01 3.17742E+00 1.34653E+01-2.90367E+01
 -1        45 2.00184E+01 1.99323E+01-7.38858E+01-3.13735E+00 6.80057E+01-4.68379E+00
 -1        46-1.45175E+00 4.54164E+01-4.42612E+01 5.45260E+00-3.59322E+01 5.28385E+00
 -1        47-2.42987E+01 2.36467E+01 7.14946E+00-4.14349E+00-2.63164E+01-6.29037E+00
 -1        48-1.47139E+01-1.25992E+00 3.74746E+00 6.40676E+01 2.09911E+00-8.14290E+00
 -1        49-4.41906E+00 2.56934E+00 4.80408E+00-1.70456E+01 8.33930E-02-1.13826E+01
 -1        50 1.37049E+01 5.52704E+00-8.11804E+00 5.63807E+01-3.35591E+00 8.31788E+01
 -1        51-7.23545E+00-1.73606E+01 3.47989E+01-2.68998E+01 7.42694E+00-4.73938E+01
 -1        52-2.24004E+01 6.60441E+01-2.63767E+01 2.80917E+01-1.83164E+01 1.05118E+01
 -1        53-9.36848E-01-1.14074E+01-8.65860E+00-2.64009E+01 5.72427E+01 2.63830E+01
 -1        54 2.37080E+00 9.12370E+00-9.85793E+00 2.12929E+01 2.79702E+00 2.29466E+01
 -1        55 4.57507E+01-2.41759E-05 6.38982E-05-1.11234E+02 1.27957E-05-7.22364E+01
 -1        56 2.89692E+01-6.02853E-05 6.90737E-05-1.01767E+02 4.18165E-05 1.64053E+01
 -1        57-5.40707E+01-1.88853E-05 1.48821E-06-7.52389E+01 4.23069E-05 1.13268E+02
 -1        58-1.28235E+01 3.44903E+00-2.71792E-01-5.59202E+01-7.72652E+00 7.09156E+01
 -1        59 2.91696E+01-1.22915E+01 7.51986E+00 2.92090E+01-1.07375E+00-4.06023E+01
 -1        60 3.04538E+00 8.80121E+00 4.55984E+00 2.95659E+01-4.40951E-01-2.15296E+01
 -1        61-1.92248E+01 6.46967E+01-1.26599E+01 1.56409E+01-1.79838E+01-1.36767E+01
 -1        62-3.65601E+01 1.61575E+02-3.77636E+01 5.99504E+01-4.43198E+01-3.94973E+00
 -1        63-3.94570E+00 6.77425E+01-4.28616E+01 2.97887E+01-1.84323E+01 2.30012E+01
 -1        64-2.01959E+00 4.82116E+00 1.95993E+00-7.07313E+01-8.66807E-01-8.85759E+01
 -1        65-6.09215E-01 1.61685E+01-1.76268E+01-2.09911E+00 8.21943E+00 1.11726E+00
 -1        66-7.19985E+00 1.86169E+01-1.85464E+01 1.93165E+01 3.34169E-02 1.83762E+01
 -1        67-3.95803E+01 4.19214E-05-2.59744E-05 1.27801E+02-6.12059E-05-5.82536E+01
 -1        68-1.44300E+01 9.58768E-05-2.38341E-05 1.12583E+02-5.36051E-05 1.37441E+01
 -1        69 9.38505E+00 2.49477E-05-9.72983E-05 8.74241E+01-4.66025E-05 6.69176E+01
 -1        70-6.29042E+00-4.55621E+00 1.77696E+01 3.25388E+01 8.51102E+00 4.37178E+01
 -1        71-5.36614E+00 1.80531E+00 1.12770E+01-7.23842E+01-1.33481E+01-6.17605E+01
 -1        72-1.00027E+01-1.46011E+01 2.15436E+01-3.25963E+01-1.52230E-02-2.53026E+01
 -1        73-7.87906E+00 8.65208E+00-6.11206E+00-1.93073E+01 7.62545E+00-1.40888E+01
 -1        74 4.23532E+01-1.56289E+02 3.87936E+01-6.23268E+01-1.47520E+01-1.67939E+01
 -1        75 2.92933E+01-9.13847E+01 3.45525E+01-3.65266E+01 1.85011E+00 2.74294E+01
 -1        76 1.39421E+01-9.10282E+00 5.41513E+00 7.30053E+01-6.52941E+00-4.85527E+01
 -1        77 6.57978E+00-8.58403E-02 2.29395E+00-2.80655E+01-7.29175E+00 3.45243E+01
 -1        78 2.96785E+01-9.15383E+00-1.05886E+01-2.76795E+01-9.86370E+00 2.73051E+01
 -1        79-4.72076E+01-3.40020E+01 1.09739E+02 2.97607E+01-1.66167E+00-2.69178E+01
 -1        80-4.10860E+01-4.50143E+01 1.52773E+02-7.92138E+00 4.55981E+00-5.27681E+01
 -1        81-5.60214E-01-1.04129E+01 1.20826E+01-9.62446E+00-1.03834E+01-1.12178E+01
 -1        82-6.85834E+00 2.49477E-05-9.72983E-05 8.45336E+01-4.66025E-05 8.54240E+01
 -1        83 8.37601E+00 2.51424E-04-1.67931E-04 1.82699E+01 1.55643E-05 1.16803E+02
 -1        84-1.00333E+00-1.88853E-05 1.48821E-06-4.32698E+01 4.23069E-05 1.37257E+02
 -1        85 3.00070E+01 4.87526E+01-8.89338E+01 3.41925E+01 1.46781E+01 2.66694E+01
 -1        86 6.01329E+01 7.18208E+01-2.06026E+02 1.78139E+01 3.77937E+01 5.47332E+01
 -1        87 1.41438E+01 3.23945E+00-4.63714E+01-2.11450E+01 3.75172E+00-1.24935E+00
 -1        88 6.65571E+00 8.15375E+00-2.83997E-05 8.97174E+01 2.91814E+00-9.72400E+01
 -1        89-1.05969E+01-2.37430E-04 1.14719E-04 1.96946E+01-5.25556E-05-1.09076E+02
 -1        90-2.06602E+01 9.11567E-01 3.13707E-05-6.04658E+01 1.18209E+00-1.17316E+02
 -1        91 3.04563E+01 1.07674E+01-8.36271E+00-9.19046E+01 1.69915E+00-5.46320E+01
 -1        92 8.16311E+00 3.04303E+01-6.90553E+00-5.72944E+01 6.63936E-01-1.32524E+01
 -1        93 3.92706E+01 7.71259E+00-1.21423E+01-9.17263E+01-4.98692E+00-9.67250E+00
 -1        94 2.24953E+01 2.00925E+01-1.03323E+01-8.35969E+01-6.82984E+00 3.05852E+01
 -1        95 1.69618E+00 4.09104E-01-5.40176E+00-6.32431E+01-3.97025E+00 4.27744E+01
 -1        96 6.05795E+01 7.25829E+00-2.20021E+01 1.08719E+01 2.17686E+00 1.51795E+00
 -1        97 3.36996E+01 2.26955E+01-1.58943E+01 6.75399E+01-2.91590E+00-2.89653E+01
 -1        98-1.64291E+01 6.11995E+01-1.87733E+01 4.66715E+01-2.81720E+01-1.36026E+01
 -1        99-3.08802E+01 8.21821E+01-3.09409E+01 3.61179E+01-8.49090E+00 1.00930E+01
 -1       100-2.86887E+01 1.40687E+02-3.81381E+01 8.87381E+01-1.98931E+01-3.30992E-01
 -1       101-4.35338E+01 1.53499E+02-4.26743E+01 7.03288E+01 1.55628E-02 5.01390E+00
 -1       102-2.08392E+01 8.50038E+01-4.28547E+01 5.17848E+01-1.64464E+00 2.44803E+01
 -1       103-4.66185E+01 7.27121E+01-1.89134E+01 2.07431E+01-1.22719E+00 1.17811E+01
 -1       104 2.86672E+01 2.77611E+01-1.53967E+01-4.19514E+01-3.95225E+00 2.50485E+01
 -1       105 6.05953E+00 7.85689E+01-3.06809E+01 8.62309E+01-2.08906E+01-1.32643E+01
 -1       106-2.03875E+01 8.12218E+01-3.08020E+01 8.98085E+00 1.79399E-01 1.48336E+01
 -1       107 1.43648E+00 9.50471E+01-3.33675E+01 7.60895E+01-1.12212E+01 8.20507E+00
 -1       108 2.64943E+01 5.13737E+01-2.06841E+01-7.61780E+00 1.03169E+00-5.94756E+00
 -1       109 1.51943E+01-2.42160E+01 7.62002E+00 8.50420E+01 7.65765E+00-3.11549E+01
 -1       110-6.45784E+00-1.08574E+01 4.41241E+00 7.99245E+01 1.06613E+01-3.02725E+00
 -1       111-2.98401E+00-1.92737E+01 7.90266E+00 6.78111E+01 1.70805E+01 2.86011E+01
 -1       112-1.49355E+01 3.24136E+00 1.20508E+01 4.10026E+01 6.88949E+00 2.00704E+01
 -1       113-5.11627E+01-4.04628E+01 3.92962E+01-1.35822E+02 2.02497E+01-3.32716E+01
 -1       114-3.45544E+01-1.64400E+01 1.23578E+01-5.48391E+01-9.13398E-01-4.36585E+00
 -1       115 3.47585E+01-9.20996E+01 2.76894E+01-8.49989E+01 1.47752E+00-2.17522E+01
 -1       116 2.82744E+01-2.52990E+01-3.40078E+00-6.20469E+01 5.34541E+00 9.37806E+00
 -1       117 2.92985E+01-6.15529E+01 1.73738E+01-1.13879E+02 2.44099E+01-9.39056E+00
 -1       118 4.11885E+01-1.42941E+02 4.52538E+01-1.44285E+02 9.54404E+00 8.96069E+00
 -1       119 4.87493E+01-5.74913E+01 2.25092E+01-1.14954E+02 1.65606E+01 2.83842E+01
 -1       120 7.19725E+01-5.51367E+01-2.03171E+00-7.69408E+01 1.52047E+01 2.17110E+00
 -1       121 4.31829E+01-4.30065E+01 1.26757E+00 2.91190E+01 4.82262E+00-4.94356E+00
 -1       122-3.02323E+01-2.08991E+01 2.70357E+01 1.26839E+01 5.49832E+00 1.95171E+01
 -1       123 1.56539E+01-1.17670E+02 4.41194E+01-1.63678E+02 1.01459E+01 6.15009E-01
 -1       124 5.66849E+01-8.76179E+01 1.28228E+01-7.03154E+01 2.93646E+01-6.25921E+00
 -1       125-6.96288E+00-5.57068E+01 2.73593E+01-4.51687E+01 2.90749E+01-4.81594E+00
 -1       126 2.35729E+01-8.87909E+01 2.66174E+01-1.74167E+02 3.08779E+01 2.85452E+00
 -1       127 3.74935E+00 2.95033E+00-1.32433E+00 2.55577E+01-1.02656E+00 4.95019E+01
 -1       128 4.59648E+01-1.43901E+01 1.42493E+01 7.87231E+00-1.31443E+01-6.62126E+01
 -1       129 2.39985E+01-2.82804E+01 5.12398E+01-3.76294E+01-2.07769E+00-1.33231E+02
 -1       130-4.31250E+01-2.98853E+01 1.05433E+02-1.45366E+01 8.33306E+00-7.68964E+01
 -1       131-4.64053E+01-5.33589E+01 1.72718E+02 1.58587E+01 3.48939E+00-1.28837E+02
 -1       132-3.83064E+01-2.23799E+01 9.64117E+01-4.99685E+00-1.26515E+01-8.25063E+01
 -1       133-1.70877E+01-1.26932E+01 4.19978E+01 7.50603E+00-1.43739E+01-4.70630E+01
 -1       134 1.23447E+01 4.65946E+00 5.34366E+00-1.34132E+01-4.43906E+00 8.20560E+01
 -1       135-3.50839E+01-1.64433E+01 5.11366E+01 2.71083E+01-1.73873E+01-5.43474E+01
 -1       136-1.05216E+01-1.80737E+01 3.79707E+01-1.13606E-01-2.94751E+00 1.20315E+01
 -1       137 1.48863E+00-1.25337E+01 2.80792E+01 5.35897E-01-8.57043E+00 7.36854E+01
 -1       138 6.69766E+00-2.57595E+01 4.62232E+01 2.29031E+01-8.73088E+00 4.65933E+01
 -1       139-1.73329E+01-4.15516E+01 1.21869E+02-1.09986E+00-2.06884E+00-1.55440E+02
 -1       140-2.53836E+01-2.18519E+01 7.19409E+01 2.41876E+01-2.49472E+01-1.03650E+02
 -1       141 2.75186E+01-1.51519E+01 2.37121E+01 2.01157E+01 1.12347E+00 4.32676E+00
 -1       142-5.11854E+00-2.40372E+01 8.62214E+01-7.42223E+00-4.72983E+00-8.66102E+01
 -1       143-4.53565E+01-4.04938E+01 1.26592E+02 3.78133E+00-1.96684E+01-1.15269E+02
 -1       144-1.49204E+01-3.17165E+01 1.21311E+02 5.15708E+00-2.12479E+01-1.79280E+02
 -1       145-2.43523E+00-4.85973E+00 3.42466E+00 4.56268E+01 8.30585E+00-7.12770E+01
 -1       146-1.35849E+01 8.20566E+00-8.29592E+00 1.37570E+01 1.91741E+01-1.23804E+01
 -1       147-4.44226E+01 1.26247E+01-5.93342E-01-8.39185E+00 2.07857E+00 4.19045E+01
 -1       148 5.07471E+01 2.33851E+01-8.35089E+01-4.97741E+00 1.54107E+01 5.63213E+01
 -1       149 5.67630E+01 4.28881E+01-1.58113E+02 5.46038E+00 1.80426E+01 7.11465E+01
 -1       150 3.33676E+01 6.38480E+01-1.60243E+02 2.38372E+01 3.40309E+01 8.88812E+01
 -1       151 1.98180E+01 2.60624E+01-7.78770E+01 7.74838E+00 9.51119E+00 2.00733E+01
 -1       152-2.45830E+01 1.33970E+01-1.27838E-02-2.51086E+01-1.08664E+00-9.82339E+01
 -1       153 1.41859E+00 1.93566E+01-3.39568E+01-1.34076E+01 1.08674E+01-3.57810E+01
 -1       154 4.09154E+01 2.12614E+01-7.15688E+01 1.50317E+01 5.42600E+00 7.59466E+00
 -1       155-2.73908E+01 2.00587E+01-2.49568E+01-5.28969E+00 5.17138E+00-9.56985E+01
 -1       156-1.26368E+01 1.87289E+01-2.70557E+01 2.37929E+01 4.58777E+00-8.38883E+01
 -1       157 1.71760E+01 2.84137E+01-7.27711E+01-7.38475E+00 1.35647E+01 1.03633E+02
 -1       158 2.62742E+01 3.79671E+01-1.11952E+02 1.11617E+01 5.79027E+00 7.53118E+01
 -1       159-9.49594E+00 2.58734E+00-1.40212E+00 3.94018E+01 8.35206E+00-7.65824E+01
 -1       160-2.62929E+01 2.52647E+01-4.11350E+01 7.72515E+00 2.63898E+01-2.48895E+01
 -1       161-3.01006E+01 3.88988E+01-6.25320E+01 9.32525E+00 1.82441E+01 6.76123E+01
 -1       162 1.46672E+01 2.93010E+01-1.02284E+02 7.82059E+00 1.18144E+01 5.62095E+01
 -1       163 3.34205E+01 2.79174E+01-8.64516E+01 3.14065E-01 2.51877E+01 8.93077E+00
 -1       164 3.41405E+01 4.38971E+01-1.21909E+02 6.93301E+00 6.77254E+01 1.02167E+01
 -1       165 3.22048E+01 3.37377E+01-1.17783E+02-4.57614E+00 4.83710E+01 1.19981E+01
 -1       166-1.14631E+01 5.73609E+01-4.53112E+01 4.20506E+00-6.71421E+00-6.56121E+00
 -1       167-1.91408E+01 8.52456E+01-2.91594E+01 2.34746E+01-3.14619E+01-4.20763E+00
 -1       168-2.36148E+01 1.17781E+02-4.98870E+01 2.51996E+01-5.61642E+01 7.92966E+00
 -1       169-1.78093E+01 4.52474E+01-5.64370E+00 7.96156E+00-3.29927E+01 4.07604E+00
 -1       170-5.84174E+00-1.09704E+02 1.14961E+02-1.33120E+01 6.09094E+00-1.70751E+01
 -1       171-2.11191E+01 1.21562E+01 1.84529E+01-1.19664E+01-2.45818E+01-4.18181E+00
 -1       172-3.74567E+01-2.44115E+01 1.01559E+02 1.53114E+00 7.15882E+00-2.91471E+01
 -1       173 5.05795E+00-7.36575E+01 5.00492E+01-2.14102E+01 4.34698E-01-4.54237E-01
 -1       174 3.37461E+01-6.79378E+01-4.29588E+00-2.32252E+01 1.99291E+01 3.21173E-01
 -1       175 1.53420E+01 4.07638E+00-4.12671E+01-1.15465E+01 4.58538E+01-9.81513E+00
 -1       176 9.68861E+00 3.88179E+01-7.01906E+01-1.46509E+00-4.35185E+00 1.82628E+01
 -1       177 8.22519E+00 3.14610E+01-5.94849E+01-2.34211E+00 2.07317E+01 4.72005E+00
 -1       178-1.99335E+01 8.88031E+01-3.48006E+01 1.26453E+01-6.01037E+01 8.40733E+00
 -1       179-7.62752E+00 2.91828E+01-2.20122E+01-3.29360E+00-3.98087E+01-8.00906E+00
 -1       180-1.15657E+00 9.19097E+00-2.06608E+01 5.78890E-01 1.55387E+01-3.97490E+00
 -1       181-1.03551E+01 4.12368E-05-2.43234E-05 1.04564E+02-6.07619E-05-5.53838E+01
 -1       182-1.81421E+01-2.37386E-04 9.75883E-05 2.41294E+01-5.66742E-05-6.52296E+01
 -1       183-3.91609E-01 8.52752E-01-1.67324E+00 6.82031E+01-3.24267E+00-5.63045E+01
 -1       184 2.12801E+01-4.73267E-05 5.03173E-05-6.96876E+01-7.52589E-06-6.30831E+01
 -1       185 1.98749E+01-4.22306E-05 6.64859E-05-6.69837E+01 2.73061E-05-1.54082E+01
 -1       186 9.64233E+00 6.71881E+00-7.70440E-01-4.82020E+01-3.49527E+00 2.58130E+01
 -1       187 9.19866E+00-5.32053E+00-1.72327E+00-4.15966E+01-3.63557E+00 1.12648E+02
 -1       188 1.11527E+01-2.64970E-01-2.99950E+00 8.62112E+01 1.52111E+00 7.39960E+01
 -1       189 1.69540E+01-1.37095E+01 4.13193E+00 6.14911E+01-1.04269E+01 9.78767E+01
 -1       190 2.10878E+01 1.28268E-04-1.20740E-04 1.36778E+01 7.40674E-05 1.09406E+02
 -1       191-4.18703E+00 6.52457E+00-2.99842E-01 8.84407E+01 2.56020E+00 6.68047E+01
 -1       192-1.89329E+01 6.82145E-05-2.32533E-05 9.63172E+01-5.69615E-05-1.45569E+01
 -1       193-1.90666E+01 9.51743E-01 8.92739E+00-1.97990E+01-3.46422E+00-6.87495E+01
 -1       194 2.59028E+01-1.34423E+00 6.25946E-01-1.27097E+01 7.82081E+00 7.61904E+01
 -1       195-1.42806E+01 4.69251E-05-3.72283E-05 8.58898E+01-8.14827E-05 1.94156E+01
 -1       196-1.02359E+01 1.98543E+00-8.38597E-02 5.45365E+01-2.06787E+00 3.40025E+01
 -1       197-9.16963E+00-5.91145E-01 1.40288E-01 2.47336E+01 4.25230E+00-8.90028E+00
 -1       198 5.88883E+00 1.56205E-05-4.07386E-05 1.57756E+01-2.79062E-05 2.70198E+01
 -1       199-5.30617E+00 6.02804E+01-4.48699E+01 3.13249E+01 9.56323E-01 2.47774E+01
 -1       200-2.59170E+01 1.04706E+02-3.55810E+01 3.57796E+01-1.27579E+01 3.09240E+00
 -1       201-2.78741E+01 1.03032E+02-3.46738E+01 5.51523E+01 1.88875E+00 1.56123E+01
 -1       202 8.34396E+00 5.45684E+01-7.17375E+01 1.04364E+01 5.62126E+00 1.57990E+01
 -1       203-1.14434E+01 5.40207E+01-3.52159E+01 1.66749E+01-2.64542E+01 4.16765E+00
 -1       204 3.08470E+01-2.90402E+01-2.83842E+01-7.62271E+01 5.43916E+01 4.75083E+00
 -1       205 4.61329E+01-1.03060E+01-5.94244E+01-6.05159E+01 3.87381E+01 2.14331E+01
 -1       206-3.84913E+01-3.80571E+01 1.08917E+02-5.57022E+00 1.18238E+01-6.45446E+01
 -1       207 2.46112E+01-9.07581E+01 4.15556E+01-5.68510E+01 3.79913E+00-1.48582E+01
 -1       208-1.84678E+01 2.75198E-01 2.50085E+01-1.61483E+01-3.84003E+00-2.84394E+01
 -1       209-1.27968E+01 3.77609E+01-2.25203E+01 2.18306E+01-1.10006E+01 1.90483E+01
 -1       210-1.16812E+01 2.03262E+01 3.73240E+00 2.68058E+00-1.66092E+01-2.55402E+01
 -1       211-2.59404E+01 1.46118E+01 3.92523E+01 2.35340E+01-3.13402E+01-2.68393E+01
 -1       212-2.97517E+00 1.17367E+00 1.02986E+01 4.02537E+00 8.53940E+00-8.57734E+00
 -1       213-5.76786E+00-2.92427E+00 3.14061E+01 1.99383E+01-2.50287E+01-2.44721E-01
 -1       214-1.92297E+01-2.73421E+01 7.71048E+01-2.11247E+00-2.47789E+00-6.23509E+01
 -1       215-2.40948E+00 1.47111E-01-3.26540E+00 1.88638E+00 3.72874E+01 1.72959E+01
 -1       216 3.42875E+00 1.95578E+01-3.82868E+01 1.09098E+01 6.22064E+00 8.23116E-01
 -1       217-8.37967E+00 2.84306E+01-2.73028E+01 9.44949E-01 3.51956E+01 1.82665E+01
 -1       218 2.61448E+00 4.38654E+01-5.53231E+01 1.60328E+01 7.55515E+00 1.51119E+01
 -1       219 3.72730E+00 1.50329E+01-3.87488E+01-1.97177E+00 2.81944E+01 1.42011E+01
 -1       220-9.39522E+00-6.44769E+00 6.58469E+00-2.58647E+01 3.71112E+01-4.81582E+00
 -1       221-7.74183E+00-3.30245E-02 1.72174E+01 8.39727E+00 1.47557E+00-3.47600E+01
 -1       222 6.73766E+00-1.95083E+01 4.86903E+01-1.85038E+01-1.73642E+00-1.10015E+02
 -1       223-1.18969E+01-1.64910E+01 2.16304E+01-2.92134E-01-4.20399E-01 4.25935E+01
 -1       224-5.14487E+00-3.00430E+01 2.96855E+01-4.25632E+01 7.19509E+00-5.40996E+01
 -1       225-1.48566E+01-3.72794E+01 2.97247E+01-9.53258E+01 1.16377E+01-2.33318E+01
 -1       226-8.71546E+00-2.43008E+01 3.78966E+01-5.08988E+01 7.75415E+00-6.48615E+01
 -1       227-1.15092E+00-2.82715E+01 5.32577E+00 2.42729E+01 2.47505E+01-1.30613E+01
 -1       228-7.02890E+00-2.26065E+01 1.57954E+01-3.34214E+01 1.59954E+01 4.34753E+00
 -1       229-6.40769E+00-3.86703E+01 1.81784E+01-7.96934E+01 3.18689E+01 1.39109E+01
 -1       230 2.76556E+01-5.56141E+01 5.17410E+00-8.93306E+01 4.84043E+01 2.23994E+01
 -1       231 1.42467E+01-4.18173E+01 6.46258E+00-1.63870E+01 4.17216E+01 7.78282E+00
 -1       232-3.34053E+01-2.92938E+01 9.59707E+01-6.61978E+00-8.47728E+00-1.10727E+02
 -1       233 1.14275E+01-3.74868E+01 5.07407E+00-5.91829E+01 2.68752E+01 7.37339E+00
 -1       234 3.58485E+01-2.07651E+01-4.81969E+01-6.08040E+01 3.48825E+01 6.24946E+01
 -1       235-1.70976E+01-3.66018E+00-6.40537E+00-1.17301E+01 3.32862E+01 1.81627E+01
 -1       236 1.35868E+01 8.84061E+00-6.35591E+01-1.08085E+01 4.01277E+01 6.16930E+01
 -1       237 1.32024E+01-4.02199E+00-2.19312E+01-1.39336E+01 3.00913E+01-1.79902E+01
 -1       238 1.92051E+01-5.91211E+01 2.25052E+01-1.01520E+02 2.68315E+01-7.68879E+00
 -1       239-1.69944E+01 7.44207E-01 3.76029E+00 4.21991E+01 1.81113E+01-2.98296E+01
 -1       240-1.68448E+01 1.65712E+01-1.90522E+01 2.99685E+01 1.13334E+01-3.45122E+01
 -1       241-3.36740E+01 3.89256E+01 3.22307E+01 2.24270E+01-4.09069E+01-5.19926E+01
 -1       242-3.99334E+01 1.73794E+00 6.67502E+01 7.51785E-01-2.09435E+01-7.06324E+01
 -1       243-3.31741E+01 1.55170E+01 4.69960E+01 1.63426E+01-3.56443E+01-6.98119E+01
 -1       244-2.96958E+01 1.04329E+02-3.63157E+01 3.96731E+01-4.48322E+01 7.71272E+00
 -1       245-2.17913E+01 3.76040E+01-5.63815E+00 9.29893E+00-3.76877E+01-8.60423E+00
 -1       246 1.39115E+01 1.27377E+01-6.80091E+00-4.62177E+01-2.20009E+00-2.76799E+00
 -1       247 1.50800E+01 1.86931E+01-1.61287E+01-1.97221E+01-3.76642E-01 9.89578E+00
 -1       248 1.20242E+00 4.88942E+00-2.90311E+00 6.34987E+00 4.06976E-01 1.35431E+01
 -1       249 8.58757E+00 8.24852E+00 1.25664E+00-2.70677E+01-5.70466E+00 4.43116E+01
 -1       250-9.24694E+00 1.87724E+01-6.40910E+00-4.59609E+01 1.97868E+00-5.53529E+01
 -1       251-3.36612E+00 3.47119E+01-4.10293E+01 4.09386E+00 2.38183E+01 6.88341E-01
 -1       252 1.21032E+01 3.64283E+00-4.64244E+01-2.33075E+01 6.83123E+01 1.32849E+01
 -1       253-4.83116E+00 1.05253E+00-3.36568E+00 1.72953E+01 2.67977E+01-1.79130E+00
 -1       254 7.92032E+00-1.90572E+01 2.23387E+00 2.19055E+01 3.40538E+01 8.34883E+00
 -1       255 6.45369E+00 2.08119E+00 2.20756E+01 2.85698E+01-1.82162E+01-8.21412E+00
 -1       256-5.89548E+00 6.89431E+01-5.57028E+01 2.80527E+01 4.87858E+00 7.05159E+00
 -1       257 6.95465E+00 1.41011E+01-1.17710E+01 3.48384E+01 1.40057E+00 4.99661E+01
 -1       258-5.49530E+00-1.09702E+00-7.42044E-03 3.79287E+01 9.69015E+00 1.49245E+01
 -1       259-1.07951E+01 1.98830E+01-1.90744E+01-4.63114E+00 8.90618E+00-3.75910E+01
 -1       260 2.98951E+00-6.76073E+00 1.92679E+01-4.01261E+01-1.25514E+01 4.44569E+01
 -1       261 1.90415E+01 2.33700E+01-1.26338E+01 3.03436E+01-1.11631E+01 4.81562E+00
 -1       262 5.55053E+00 3.56110E+01-4.24688E+01-2.82712E+01 7.96832E+00-1.74755E+01
 -1       263-2.52229E-01 4.73857E+01-7.61616E+01 5.16263E+00 9.65726E+00 5.86062E+01
 -1       264 2.46041E+01 2.98524E+01-1.03451E+02-6.81672E+00 5.08327E+01 4.49716E+01
 -1       265-1.25163E+01-1.23511E+01 1.86802E+01 8.22380E+00 6.78580E+00 3.38857E+01
 -1       266 1.82612E+00 5.33566E-01 8.92577E-01 5.05733E+01 2.02119E+01 3.97300E+01
 -1       267 1.61892E+01-1.12155E+01 1.47537E+01 2.50292E+01-4.24144E+00 1.01197E+01
 -1       268 1.02184E+01-1.96800E+01 2.54185E+01 2.25243E+01-1.84185E+01 4.66365E+01
 -1       269-1.52290E+01 4.24967E+01-5.35589E+00 4.48405E+01-2.65398E+01-1.97308E+01
 -1       270-6.86626E+00-8.97150E+00 5.00659E+00 5.48359E+01 1.66454E+01-1.03762E+00
 -1       271-9.47344E+00 5.66177E+01-3.00663E+01 3.53808E+01-3.21624E+00 1.94338E+01
 -1       272 6.78517E+00-1.00765E+01 3.65271E+00 6.35439E+01 1.27235E+01-3.65240E+01
 -1       273-5.00204E-02 5.75869E+01-2.24279E+01 5.77320E+01-2.22683E+01 4.05185E+00
 -3
    1PSTEP                        28           1           1          
    1PGM                1.000000E+00                                  
    1PGK                1.987188E+12                                  
    1PHID                         -1                                  
    1PSUBC                         0                                  
    1PMODE                        10                                  
  100CL  110 2.24357E+05         273                     2   10MODAL      1
 -4  DISP        4    1
 -5  D1          1    2    1    0
 -5  D2          1    2    2    0
 -5  D3          1    2    3    0
 -5  ALL         1    2    0    0    1ALL
 -1         1-6.93434E+02-9.76428E+01 1.38139E+02
 -1         2 7.09370E+02 1.22083E+02 7.11573E+01
 -1         3 6.92031E+02 2.20705E+02-4.06664E+02
 -1         4-6.95559E+02-2.03819E+02-3.56084E+02
 -1         5 0.00000E+00 0.00000E+00 0.00000E+00
 -1         6 0.00000E+00 0.00000E+00 0.00000E+00
 -1         7 0.00000E+00 0.00000E+00 0.00000E+00
 -1         8 0.00000E+00 0.00000E+00 0.00000E+00
 -1         9 0.00000E+00 0.00000E+00 0.00000E+00
 -1        10 0.00000E+00 0.00000E+00 0.00000E+00
 -1        11-2.08054E+01 5.40387E+02 7.63730E+01
 -1        12 5.02542E+02 5.36228E+02 1.52113E+02
 -1        13-2.64732E+02-2.05460E+02-1.12758E+02
 -1        14 2.13077E+02-3.63746E+01 1.41637E+02
 -1        15 2.82605E+00 3.71035E+02-1.53336E+02
 -1        16-5.02471E+02 1.73865E+02-4.36848E+02
 -1        17 0.00000E+00 0.00000E+00 0.00000E+00
 -1        18 0.00000E+00 0.00000E+00 0.00000E+00
 -1        19 2.64928E+01-4.25990E+02 1.49737E+02
 -1        20-4.77167E+02-4.77624E+02 2.45289E+02
 -1        21 2.86620E+02 2.17430E+02-8.25037E+01
 -1        22-1.93032E+02 6.84908E+01 1.85292E+02
 -1        23-2.55957E+00-3.40469E+02-1.72073E+02
 -1        24 4.82601E+02-1.60479E+02-4.72539E+02
 -1        25-2.93936E+02-4.09070E+01 7.37341E+00
 -1        26 3.45517E+02 5.51533E+01-1.74817E+01
 -1        27 0.00000E+00 0.00000E+00 0.00000E+00
 -1        28 0.00000E+00 0.00000E+00 0.00000E+00
 -1        29 3.28764E+02 6.56975E+00-2.59214E+02
 -1        30-3.15795E+02-4.74690E+01-2.51649E+02
 -1        31 0.00000E+00 0.00000E+00 0.00000E+00
 -1        32 0.00000E+00 0.00000E+00 0.00000E+00
 -1        33-1.24195E+01 3.34935E+02-8.73981E+01
 -1        34 1.11519E+02 5.19064E+02 1.95951E+02
 -1        35-1.15790E+02 2.95445E+02-1.54515E+02
 -1        36 2.00085E+01-2.99852E+02-6.60188E+01
 -1        37-1.25451E+02-5.13552E+02 2.30356E+02
 -1        38 1.38320E+02-2.81739E+02-1.57820E+02
 -1        39-1.67269E+02-3.08281E+02 2.24579E+02
 -1        40 1.28922E+02 1.34672E+02 2.11071E+02
 -1        41 3.82953E+01 2.28590E+02 1.36419E+02
 -1        42 7.83493E+01-2.74914E+02-2.03316E+02
 -1        43 3.43715E+01-5.11055E+01-3.79192E+02
 -1        44-3.97064E+01 1.69677E+02-1.88945E+02
 -1        45 8.37947E+01-3.00064E+01-2.59471E+01
 -1        46-9.60826E+01-7.28502E+00-1.14469E+01
 -1        47 2.09470E+00-7.05436E+00 1.46269E+02
 -1        48 0.00000E+00 0.00000E+00 0.00000E+00
 -1        49 0.00000E+00 0.00000E+00 0.00000E+00
 -1        50 0.00000E+00 0.00000E+00 0.00000E+00
 -1        51-1.05819E+02-2.16412E+02 3.03164E+02
 -1        52-2.73549E+01 2.28409E+02 1.52916E+01
 -1        53 6.02691E+01-2.16239E+02-1.62197E+02
 -1        54 5.40609E+00 8.68668E+01 5.93705E+01
 -1        55 0.00000E+00 0.00000E+00 0.00000E+00
 -1        56 0.00000E+00 0.00000E+00 0.00000E+00
 -1        57 0.00000E+00 0.00000E+00 0.00000E+00
 -1        58-8.62603E+01 2.81225E+02 2.43827E+01
 -1        59 2.28654E+02 6.00628E+02 1.31485E+02
 -1        60 6.54442E+02 3.35532E+02 1.43023E+02
 -1        61-4.91509E+02-2.02693E+02-2.60573E+02
 -1        62-4.02451E+01-1.39554E+02 3.29110E+01
 -1        63 4.73901E+02 8.34675E+01 1.17133E+02
 -1        64 7.69035E+01 2.25805E+02-6.27523E+01
 -1        65-2.29872E+02 3.37934E+02-2.90585E+02
 -1        66-6.43258E+02-2.87048E+01-4.31335E+02
 -1        67 0.00000E+00 0.00000E+00 0.00000E+00
 -1        68 0.00000E+00 0.00000E+00 0.00000E+00
 -1        69 0.00000E+00 0.00000E+00 0.00000E+00
 -1        70 8.38382E+01-2.16847E+02 7.84047E+01
 -1        71-2.07172E+02-5.12843E+02 2.07009E+02
 -1        72-6.37872E+02-2.88869E+02 2.16222E+02
 -1        73 4.99801E+02 2.14758E+02-2.68219E+02
 -1        74 6.17431E+01 1.56382E+02 7.14708E+01
 -1        75-4.62899E+02-5.46005E+01 1.71112E+02
 -1        76-7.04014E+01-2.03568E+02-8.32372E+01
 -1        77 2.17515E+02-3.20427E+02-3.23534E+02
 -1        78 6.33506E+02 3.94262E+01-4.74169E+02
 -1        79-5.42292E+02-7.73337E+01 1.03150E+02
 -1        80 4.12962E+01 6.85184E+00-3.47041E+01
 -1        81 5.71811E+02 9.15238E+01 4.83460E+01
 -1        82 0.00000E+00 0.00000E+00 0.00000E+00
 -1        83 0.00000E+00 0.00000E+00 0.00000E+00
 -1        84 0.00000E+00 0.00000E+00 0.00000E+00
 -1        85 5.51601E+02 9.37230E+01-3.62498E+02
 -1        86-6.94934E+00-3.24850E+01-2.04792E+02
 -1        87-5.50317E+02-1.18176E+02-3.25997E+02
 -1        88 0.00000E+00 0.00000E+00 0.00000E+00
 -1        89 0.00000E+00 0.00000E+00 0.00000E+00
 -1        90 0.00000E+00 0.00000E+00 0.00000E+00
 -1        91 1.30615E+01 1.67575E+02-5.62262E+01
 -1        92-3.25295E+01 3.62791E+02-1.55028E+02
 -1        93 8.83252E+00 1.76207E+02-4.11515E+01
 -1        94 3.91628E+00 1.91481E+02 1.00402E+01
 -1        95 1.76111E+01 2.92370E+02 8.73656E+01
 -1        96 1.22341E+02 5.84048E+02 1.84037E+02
 -1        97 2.66752E+02 5.82065E+02 2.46727E+02
 -1        98 4.40326E+02 3.16960E+02 2.06874E+02
 -1        99-4.42166E+02-3.13932E+00-3.42829E+02
 -1       100 3.67789E+00 1.36962E+02 3.60510E+01
 -1       101-2.00739E+02 6.68613E+01-1.53440E+02
 -1       102-2.90623E+02 2.52436E+02-3.47133E+02
 -1       103-1.36983E+02 3.91034E+02-2.58405E+02
 -1       104 4.08857E+01 3.49570E+02 1.17148E+02
 -1       105 1.94788E+02 3.47912E+02 1.83935E+02
 -1       106-5.34616E+01 3.88305E+02-1.22007E+02
 -1       107 2.90052E+01 4.10906E+02 5.51730E+01
 -1       108 2.89031E+01 4.15802E+02 3.93374E+01
 -1       109-3.61844E+00-1.49508E+02-5.53800E+01
 -1       110 1.07212E+00-1.56376E+02-2.74327E+01
 -1       111 1.23279E+00-1.62321E+02 2.51983E+01
 -1       112-3.51462E+00-2.20302E+02 8.97955E+01
 -1       113-2.69605E+02-5.34777E+02 2.99232E+02
 -1       114-1.01960E+02-4.97293E+02 2.13732E+02
 -1       115-4.30006E+02-2.71991E+02 2.59613E+02
 -1       116 4.47767E+02 1.59308E+01-3.50131E+02
 -1       117 2.38087E+02-3.48772E+01-1.55206E+02
 -1       118 1.49577E+01-1.17740E+02 6.58829E+01
 -1       119 3.01058E+02-2.39964E+02-3.57854E+02
 -1       120 1.40786E+02-3.64648E+02-2.75764E+02
 -1       121 2.46797E+01-3.29368E+02-1.62487E+02
 -1       122-3.01048E+01-3.02850E+02 1.13032E+02
 -1       123-1.92653E+02-3.02916E+02 2.18379E+02
 -1       124 6.38226E+01-3.59849E+02-1.17536E+02
 -1       125-2.83950E+01-4.04423E+02 6.57888E+01
 -1       126-1.40455E+01-3.89413E+02 6.63516E+01
 -1       127 2.32991E+01-2.14788E+02 8.71030E+01
 -1       128-1.26500E+02-4.17535E+02 2.10436E+02
 -1       129-3.25059E+02-4.45220E+02 2.59508E+02
 -1       130-5.06467E+02-2.55619E+02 2.15329E+02
 -1       131-6.13583E+01-1.98248E+01 1.39576E+02
 -1       132 2.55079E+02 1.23333E+02 1.26626E+02
 -1       133 5.33728E+02 2.76838E+02 1.55910E+02
 -1       134-4.41383E+01 2.21580E+02 3.22134E+01
 -1       135 2.54111E+02 4.86636E+02 1.86236E+02
 -1       136 4.89460E+01 4.26070E+02 1.21387E+02
 -1       137-9.33600E+00 1.31096E+02 5.21309E+01
 -1       138-7.13298E+00-2.28126E+01 5.24603E+01
 -1       139-2.78232E+02-1.91088E+02 2.21638E+02
 -1       140 3.75977E+02 3.80921E+02 2.00408E+02
 -1       141-4.14096E+01-1.99646E+02 1.12866E+02
 -1       142-4.56588E+01-3.76176E+01 1.79128E+02
 -1       143 9.46099E+01 1.96445E+02 1.96025E+02
 -1       144-7.48828E+01-7.19908E+01 2.19629E+02
 -1       145-2.48767E+01-1.90151E+02-8.53808E+01
 -1       146 6.54209E+01-3.23834E+02-2.01838E+02
 -1       147 2.67035E+02-3.27565E+02-3.59061E+02
 -1       148 5.22118E+02-7.22566E+01-4.59471E+02
 -1       149-1.44437E+02 1.22759E+01-3.54500E+02
 -1       150 1.88518E+02-7.13600E+01-3.64788E+02
 -1       151-5.20056E+02 4.60348E+01-4.28367E+02
 -1       152 2.35739E+01 1.99057E+02-7.12743E+01
 -1       153-7.66232E+01 3.23000E+02-1.88681E+02
 -1       154-2.64665E+02 3.19336E+02-3.29164E+02
 -1       155-7.96651E-01 1.13835E+02-7.13757E+01
 -1       156-1.50384E+00-2.57803E+01-6.45984E+01
 -1       157 3.57871E+02-2.20983E+02-4.42367E+02
 -1       158-3.30433E+02 1.66466E+02-4.02930E+02
 -1       159 7.42845E+00-1.37481E+02-7.87853E+01
 -1       160 2.22561E+01-7.53938E+01-1.87804E+02
 -1       161 1.18529E+02-1.87664E+02-3.11151E+02
 -1       162-4.28020E+01 5.91415E+01-3.01441E+02
 -1       163 3.79196E+02 6.34032E+01-2.41488E+02
 -1       164 1.96421E+02-2.25388E+01-1.94610E+02
 -1       165-3.70746E+01-2.05690E+01-1.81733E+02
 -1       166-3.90642E+02-9.73477E+01-2.36911E+02
 -1       167-1.77774E+02-6.23712E+01-6.00785E+01
 -1       168 4.91072E+00-1.40617E+01 8.47612E+01
 -1       169 3.70651E+02 7.73632E+01 1.19986E+02
 -1       170-3.54412E+02-6.66203E+01 1.68308E+02
 -1       171 1.35486E+02 3.27272E+01 8.54795E+01
 -1       172-9.17979E+01-3.19668E+01 9.61012E+01
 -1       173-1.38009E+02-6.09914E+01 1.78588E+02
 -1       174 1.67330E+01-4.89596E+00 1.09438E+02
 -1       175 1.94297E+02 2.17750E+01-5.44157E+01
 -1       176-2.22498E+02-3.36031E+01-1.80937E+02
 -1       177-2.74424E+01-1.30399E+01-1.00523E+01
 -1       178 1.45402E+02 4.66500E+01 1.45968E+02
 -1       179 2.57287E+00 1.49393E+01 1.07331E+02
 -1       180-8.34977E+00-3.19750E+01 1.10543E+02
 -1       181 0.00000E+00 0.00000E+00 0.00000E+00
 -1       182 0.00000E+00 0.00000E+00 0.00000E+00
 -1       183 0.00000E+00 0.00000E+00 0.00000E+00
 -1       184 0.00000E+00 0.00000E+00 0.00000E+00
 -1       185 0.00000E+00 0.00000E+00 0.00000E+00
 -1       186 0.00000E+00 0.00000E+00 0.00000E+00
 -1       187 0.00000E+00 0.00000E+00 0.00000E+00
 -1       188 0.00000E+00 0.00000E+00 0.00000E+00
 -1       189 0.00000E+00 0.00000E+00 0.00000E+00
 -1       190 0.00000E+00 0.00000E+00 0.00000E+00
 -1       191 0.00000E+00 0.00000E+00 0.00000E+00
 -1       192 0.00000E+00 0.00000E+00 0.00000E+00
 -1       193 0.00000E+00 0.00000E+00 0.00000E+00
 -1       194 0.00000E+00 0.00000E+00 0.00000E+00
 -1       195 0.00000E+00 0.00000E+00 0.00000E+00
 -1       196 0.00000E+00 0.00000E+00 0.00000E+00
 -1       197 0.00000E+00 0.00000E+00 0.00000E+00
 -1       198 0.00000E+00 0.00000E+00 0.00000E+00
 -1       199-2.45337E+02 2.65887E+02-3.22061E+02
 -1       200-1.31436E+02 1.20656E+02-7.30896E+01
 -1       201-8.28114E+01 3.32841E+02-8.21041E+01
 -1       202-1.94318E+02 7.38085E+01-2.66132E+02
 -1       203-6.57419E+01 1.10267E+02-1.82099E+01
 -1       204 1.67221E+02-1.76964E+02-1.35808E+02
 -1       205 3.50760E+02-1.37715E+02-3.63136E+02
 -1       206-1.93087E+02-1.44391E+02 2.47579E+02
 -1       207-1.80486E+02-2.07393E+02 2.49966E+02
 -1       208-5.89238E+01-7.10376E+01 2.40786E+02
 -1       209 1.87127E+00 2.14955E+02 4.65785E+01
 -1       210-3.62198E+00 1.81072E+01 1.80496E+02
 -1       211 9.68562E+01 3.00794E+02 2.99353E+02
 -1       212-1.43080E+01-7.68753E+01 2.01597E+02
 -1       213 3.09413E+01 1.58409E+02 2.49021E+02
 -1       214-2.17971E+01 5.06359E+00 3.20683E+02
 -1       215 1.18924E+01-7.37626E+01-4.09392E+01
 -1       216-2.09858E+01 1.27655E+02-1.84742E+02
 -1       217-5.83380E+00 3.29800E+01-8.15753E+01
 -1       218-8.93313E+01 2.32048E+02-2.87756E+02
 -1       219 1.24885E+01-1.13504E+01-2.92362E+02
 -1       220-1.45684E+01-2.12742E+02 1.01853E+02
 -1       221-4.79241E+01-1.17519E+02 2.82402E+02
 -1       222-1.56780E+02-2.76442E+02 3.49050E+02
 -1       223-6.09049E+01-2.90137E+02 1.64513E+02
 -1       224-1.87915E+02-4.83742E+02 3.07065E+02
 -1       225-1.43229E+02-4.41834E+02 2.87811E+02
 -1       226-3.01569E+02-3.91825E+02 3.34119E+02
 -1       227 8.09887E+01-3.39274E+02-1.83352E+02
 -1       228-4.15157E+01-3.19629E+02 1.62308E+02
 -1       229-2.04015E+01-4.17905E+02 9.26045E+01
 -1       230 1.06584E+02-3.69412E+02-1.58100E+02
 -1       231 5.81879E+01-3.86263E+02-1.15422E+02
 -1       232-3.13173E+01-3.11243E+01 3.20643E+02
 -1       233 1.75133E+02-3.92725E+02-3.05743E+02
 -1       234 2.37906E+02-2.80342E+02-3.85336E+02
 -1       235 1.00464E+02-2.76991E+02-2.95739E+02
 -1       236 7.37933E+01-1.33280E+02-3.65697E+02
 -1       237-1.68811E+01-1.24728E+02 1.13780E+02
 -1       238-2.02351E+01-3.51755E+02 9.95274E+01
 -1       239 2.45765E+01-1.47634E+02-1.03970E+02
 -1       240 1.92511E+00-4.54048E+00-1.09070E+02
 -1       241 3.28084E+02 2.42267E+02 2.29726E+02
 -1       242 7.29529E+01 5.04896E+01 2.30194E+02
 -1       243 1.05112E+02 2.16466E+02 2.96558E+02
 -1       244 5.95799E+01 1.82949E+02 1.23634E+02
 -1       245 1.47768E+01 8.15509E+01 1.52376E+02
 -1       246-4.59190E+00 1.83791E+02-3.84591E+01
 -1       247-9.49096E+00 3.32950E+02-2.37981E+01
 -1       248-5.12838E-01 1.13586E+02-9.00940E+00
 -1       249 2.27252E+01 2.10430E+02 7.18389E+01
 -1       250-1.75479E+01 1.71956E+02-6.78090E+01
 -1       251-1.75124E+01 3.45557E+00-3.40766E+01
 -1       252 7.40380E+01-1.51687E+02-1.46015E+02
 -1       253 3.65499E+01-1.41381E+02-1.85669E+02
 -1       254 1.63493E+01-2.68161E+02-2.43897E+01
 -1       255 1.40036E+02 4.92978E+02 2.49914E+02
 -1       256-1.52278E+02 3.72298E+02-2.95935E+02
 -1       257 2.42560E-02 2.72354E+01 8.76382E+01
 -1       258 1.19148E+01-3.84075E+01-5.88105E+00
 -1       259-1.49925E+01 1.45435E+02-9.67959E+01
 -1       260 4.14740E+01 2.64760E+02 1.16923E+02
 -1       261 5.48303E+01 4.13787E+02 1.53674E+02
 -1       262-7.22653E+01 3.35872E+02-1.80509E+02
 -1       263-7.18097E+01 8.37048E+01-3.20774E+02
 -1       264 9.51618E+01-8.26163E+01-3.13005E+02
 -1       265-3.71309E+01-2.54626E+02 1.58607E+02
 -1       266-1.57340E+00-1.58223E+02 2.66577E+01
 -1       267-4.12212E+01-1.33652E+02 1.87567E+02
 -1       268 5.47438E+00 6.82245E+01 1.36746E+02
 -1       269 2.21707E+02 4.22095E+02 2.72981E+02
 -1       270 9.91420E+00-1.54724E+02-3.54347E+01
 -1       271-2.68446E+01 3.89276E+02-3.87731E+01
 -1       272 2.05924E+01-1.52595E+02-7.13988E+01
 -1       273 6.73449E+01 4.37655E+02 1.52573E+02
 -3
    1PSTEP                        29           1           1          
    1PGM                1.000000E+00                                  
    1PGK                1.987188E+12                                  
    1PHID                         -1                                  
    1PSUBC                         0                                  
    1PMODE                        10                                  
  100CL  110 2.24357E+05         273                     2   10MODAL      1
 -4  STRESS      6    1
 -5  SXX         1    4    1    1
 -5  SYY         1    4    2    2
 -5  SZZ         1    4    3    3
 -5  SXY         1    4    1    2
 -5  SYZ         1    4    2    3
 -5  SZX         1    4    3    1
 -1         1-1.00493E+06-9.92545E+05-1.13053E+06-3.47582E+05-1.35566E+06-2.97194E+05
 -1         2 1.02363E+06 2.30778E+05 5.38227E+05-2.04784E+05-1.27544E+06-4.35213E+05
 -1         3 2.36574E+06 2.69815E+05 2.55583E+06-8.37901E+04-1.63259E+06 2.19883E+05
 -1         4-1.75300E+06-7.07205E+05-1.76800E+06 6.38332E+05-1.60447E+06 3.02030E+05
 -1         5 2.54295E+07 1.08984E+07 1.08984E+07-1.03833E+07 2.17681E+00 3.85510E+06
 -1         6-2.66955E+07-1.14409E+07-1.14409E+07 1.37499E+07-8.11442E-02 4.97698E+05
 -1         7-1.12781E+07-1.08949E+06-2.97789E+06-8.09895E+06-4.87433E+05-2.71438E+06
 -1         8 1.15903E+07 2.97573E+06 4.36979E+06 9.24451E+06-4.28104E+05-3.39996E+06
 -1         9 4.81485E+06 2.06350E+06 2.06350E+06 1.06566E+07-6.38839E+00-2.22437E+06
 -1        10 5.45944E+06 2.64749E+06 1.35713E+06 1.57457E+07-8.12101E+05 4.90721E+06
 -1        11 2.07872E+07 3.82488E+06 2.80030E+06 2.07771E+06-1.42059E+06-3.28172E+05
 -1        12 2.80692E+07 6.51318E+06 2.62225E+06-2.92533E+05-3.07657E+06 2.47911E+06
 -1        13-2.31078E+06 3.57997E+06-9.84918E+05-9.09349E+05-3.42192E+05 2.22110E+06
 -1        14 1.93193E+06 1.47573E+07 1.02356E+06-6.03147E+05-1.99282E+06-1.95563E+06
 -1        15-2.20747E+07-4.40324E+06-3.65538E+06 7.74653E+05-2.42826E+06-6.93265E+05
 -1        16-2.67695E+07-1.78346E+06-5.70220E+06-1.93006E+06-2.81246E+06-4.94935E+06
 -1        17-1.60025E+06-6.85817E+05-6.85813E+05-9.47139E+06-1.00365E+01-1.27133E+06
 -1        18-1.34558E+06-9.57266E+05-1.27372E+06-1.09128E+07-5.88564E+04 4.40979E+06
 -1        19-1.95809E+07-4.36984E+06-2.63756E+06-2.44689E+06-8.14952E+05-1.63739E+06
 -1        20-2.81934E+07-5.27547E+06-3.11582E+06 8.65291E+05-2.58467E+06 2.20432E+06
 -1        21 9.18476E+05-2.29626E+06 1.03401E+05-2.93618E+04-3.18475E+05 1.96679E+06
 -1        22-1.95555E+06-1.36931E+07-1.51070E+06-3.02358E+05-3.13419E+06-1.42546E+06
 -1        23 2.13903E+07 4.44522E+06 1.71529E+06-6.97702E+05-2.76685E+06-9.24614E+05
 -1        24 2.80804E+07 2.80566E+06 5.70714E+06 2.64695E+06-2.42476E+06-3.99222E+06
 -1        25-1.64351E+06 8.03004E+05-9.15782E+06 3.47765E+05-3.68796E+06 4.54545E+06
 -1        26 4.78708E+05-8.59518E+05 6.83915E+06 7.14253E+04-3.79076E+06 3.51910E+06
 -1        27-1.93471E+06 3.61648E+05-2.12778E+06-7.38089E+06-3.88275E+05 3.56753E+06
 -1        28-6.92978E+06-1.78599E+06-2.76852E+06 6.22598E+06 4.02974E+05 9.44357E+05
 -1        29 1.31877E+06-1.42213E+06 1.10610E+07-9.90834E+04-5.24030E+05-4.30026E+06
 -1        30 7.36427E+04-1.68207E+05-7.55894E+06-1.45903E+06-1.22934E+06-3.95427E+06
 -1        31 9.69826E+05-1.55702E+05 2.03553E+06-6.68486E+06-1.61985E+05-3.65148E+06
 -1        32 9.92165E+05-4.71914E+05-1.42256E+06 6.77902E+06 6.41697E+05-3.07034E+06
 -1        33-5.72744E+06-3.54543E+04-4.26636E+05 9.44820E+06 2.36452E+06-1.63038E+06
 -1        34 1.10254E+07 1.57981E+07 3.40434E+05 4.70765E+06 3.44614E+06 1.84813E+06
 -1        35-7.84897E+06 1.05523E+06 4.88647E+05 1.52650E+05 5.70955E+06-7.35498E+05
 -1        36 4.67010E+06 1.46853E+06-9.02032E+05-9.93787E+06 3.68714E+06-1.55680E+06
 -1        37-1.16421E+07-1.05886E+07-2.96976E+05-7.00779E+06 5.51235E+06 2.92444E+06
 -1        38 1.00406E+07-1.34112E+06-8.24316E+05 3.91968E+05 6.39056E+06-6.34852E+05
 -1        39-1.41890E+07-2.16886E+06-7.74843E+06-9.50976E+05 3.73148E+06 8.11395E+06
 -1        40 7.32957E+06-4.09861E+05 8.65024E+05-8.67962E+05 4.01941E+06 9.62940E+06
 -1        41 9.33152E+06 5.26402E+05 2.21214E+06 2.48482E+06 5.30074E+06 8.42527E+06
 -1        42 1.60466E+07 1.04834E+06 6.97324E+06-3.13176E+06 3.02643E+06-9.20105E+06
 -1        43 3.47490E+06 5.02538E+05 4.12551E+06-5.47692E+05 7.36873E+06-1.38692E+07
 -1        44-8.74493E+06-9.11317E+05-3.02434E+06 2.23227E+06 7.35923E+06-1.05754E+07
 -1        45 2.10347E+05 1.94162E+04 4.26118E+05 7.71573E+05 1.09419E+07 5.11021E+05
 -1        46-6.92409E+04 2.90458E+06-2.08628E+06-1.57877E+05 7.54883E+06 1.16816E+05
 -1        47 2.56595E+04 5.52447E+05-7.35073E+05 3.43932E+05 3.55988E+06-2.29309E+05
 -1        48 1.78854E+06-3.10406E+05-3.60253E+05-6.73130E+06 1.53582E+06-3.21893E+06
 -1        49-6.76673E+05-5.99162E+05 4.29759E+05 9.94984E+06 7.91500E+05-2.61161E+06
 -1        50-1.45601E+05 4.05613E+05 1.00764E+06-2.35997E+06 2.88276E+06 7.21802E+06
 -1        51-3.63375E+06-2.14614E+06-2.20541E+06-7.43455E+05 1.73029E+07 3.25510E+06
 -1        52-1.83762E+06 4.25911E+06-3.42835E+04-9.41601E+04 2.26665E+07-6.86685E+05
 -1        53 3.09093E+06 1.71419E+06-8.36463E+04-2.28913E+06 2.48983E+07-4.25440E+06
 -1        54 2.25112E+05 1.38634E+05-1.77172E+05 2.60698E+06 2.44402E+07 1.18135E+06
 -1        55 5.66772E+06 2.42902E+06 2.42902E+06 1.01593E+07-1.68446E+00-3.09297E+06
 -1        56 3.82339E+06 1.63858E+06 1.63859E+06 1.15367E+07-1.10923E+01 7.25310E+05
 -1        57-9.59126E+06-4.11053E+06-4.11053E+06 1.42743E+07-8.11442E-02 3.46090E+06
 -1        58-3.01445E+06-3.02959E+06-2.77698E+06 8.07995E+06 1.48194E+04-1.97370E+05
 -1        59 3.37895E+07 7.22821E+06 5.14596E+06-3.16416E+05-3.81844E+06 3.02640E+05
 -1        60 1.31549E+07 1.34582E+06 7.76022E+04-5.78830E+05-7.49647E+05 1.73154E+06
 -1        61-1.02909E+06-6.08892E+05-6.89636E+05 4.52973E+05-2.99395E+05 2.84921E+06
 -1        62-5.49074E+05 1.02553E+07-1.39592E+06-8.27483E+05-2.10284E+06 5.38264E+05
 -1        63 1.22519E+06 9.89228E+06 3.09052E+05 7.30033E+03-1.46069E+06-2.92061E+06
 -1        64-3.03653E+04-1.30464E+06 6.32456E+05 4.63845E+06-6.31603E+05-1.08802E+06
 -1        65-3.20156E+07-5.02793E+06-5.71858E+06-1.11133E+06-3.27960E+06-2.80847E+06
 -1        66-1.30615E+07-1.34449E+06-1.84124E+06-8.15080E+05-1.36774E+06-1.96392E+06
 -1        67-2.55522E+06-1.09508E+06-1.09508E+06-9.07188E+06-6.29969E+00-2.89700E+06
 -1        68-1.56754E+06-6.71794E+05-6.71792E+05-9.81725E+06-1.45633E+01 1.79016E+06
 -1        69 1.10454E+07 4.73374E+06 4.73373E+06-1.05459E+07 2.17681E+00 4.39102E+06
 -1        70 3.02409E+06 2.07798E+06 2.60119E+06-6.22456E+06-3.97551E+05 6.56611E+05
 -1        71-3.25028E+07-6.67104E+06-5.18566E+06-7.79038E+05-2.84644E+06 2.21963E+05
 -1        72-1.43906E+07-2.07671E+06-1.52970E+06 5.52271E+05-1.24754E+06 1.14549E+06
 -1        73 6.59879E+05-4.15403E+04-1.56274E+05-2.01126E+05-6.26486E+05 1.82331E+06
 -1        74-1.11623E+06-9.80827E+06-2.55610E+05-2.68096E+05-3.04271E+06 1.00286E+06
 -1        75-4.88096E+05-9.80283E+06 1.02268E+05-8.73133E+05-1.95023E+06-2.68704E+06
 -1        76-5.66373E+05 6.44639E+05-2.01046E+06-4.35383E+06-1.21633E+06 2.90523E+05
 -1        77 3.01746E+07 4.20464E+06 3.43555E+06 1.63026E+06-2.26307E+06-2.55732E+06
 -1        78 1.44258E+07 1.99576E+06 3.13055E+06 1.09162E+06-1.57342E+06-1.70288E+06
 -1        79 3.85912E+05 1.42980E+06-7.01399E+06 9.53079E+05-2.08261E+06 2.41128E+06
 -1        80-1.00511E+06-3.92373E+04-1.81059E+06-1.76602E+05-5.00017E+06 4.23620E+06
 -1        81-3.64193E+05-1.80166E+06 4.85579E+06-4.43926E+05-2.17291E+06 2.11455E+06
 -1        82 1.54607E+07 6.62602E+06 6.62602E+06-1.02864E+07 2.17681E+00 4.26434E+06
 -1        83-5.16495E+06-2.21359E+06-2.21356E+06-2.49072E+05-1.51631E+01 1.50735E+06
 -1        84-1.97594E+07-8.46829E+06-8.46829E+06 1.09438E+07-8.11442E-02 8.66111E+05
 -1        85 2.14977E+04-1.53058E+06 8.45663E+06 8.90086E+04-5.70286E+05-2.21547E+06
 -1        86 2.26804E+05 6.94927E+05 6.96792E+05-6.57903E+05-2.39582E+06-4.08805E+06
 -1        87-4.65383E+04 5.95540E+05-6.59483E+06-7.75234E+05-1.14158E+06-2.83523E+06
 -1        88-3.91375E+06-1.91294E+06-1.74800E+06-7.61003E+06-9.96412E+05-4.14642E+06
 -1        89 2.73582E+06 1.17252E+06 1.17251E+06 1.43250E+05-2.38212E+01-1.84810E+06
 -1        90 7.54485E+06 1.87899E+06 2.82714E+06 8.81386E+06-7.45102E+05-3.65151E+06
 -1        91 1.08060E+06 6.96701E+05 1.38708E+06 9.26512E+06 7.30487E+05-2.62745E+06
 -1        92-1.49820E+07-4.01234E+06-2.15693E+06 5.57976E+06 3.34588E+05-1.29601E+06
 -1        93-3.79493E+05 1.42121E+06 2.52569E+05 9.38568E+06 1.16671E+06-1.89991E+06
 -1        94 1.33089E+06 3.78671E+06 5.89025E+05 1.13784E+07 9.07612E+05 9.89264E+05
 -1        95 1.13901E+07 1.93143E+06 1.39720E+06 9.23273E+06-1.12181E+06 2.55879E+06
 -1        96 1.63087E+07 1.15883E+07 4.20639E+05 3.63694E+06 1.22089E+06 1.19439E+06
 -1        97 2.03487E+07 1.28845E+07 1.47537E+06 2.03597E+06-6.27939E+05 1.90998E+06
 -1        98 1.38141E+07 9.93259E+06 9.42715E+05-8.11140E+05-1.70481E+06-6.23620E+04
 -1        99-1.31874E+07 7.82756E+05-8.57216E+05-1.48324E+06-9.34405E+05-1.19222E+05
 -1       100-7.44657E+05 1.22325E+07 6.91797E+05-2.60498E+05 1.32482E+06 6.52064E+04
 -1       101-6.88443E+06 2.18202E+06-2.17240E+05-1.16621E+06 1.80901E+06 5.97572E+05
 -1       102-1.90672E+07-2.87359E+06-2.94209E+06-1.01991E+06 7.43810E+05-2.60097E+06
 -1       103-1.48972E+07-3.09507E+06 1.17097E+05-5.88991E+05 1.84318E+06-1.23205E+06
 -1       104 7.03815E+06 8.81944E+06-3.23474E+05 1.08607E+07 1.11621E+06 2.53279E+06
 -1       105 9.84059E+06 1.88770E+07 7.89427E+04 6.50432E+05-2.33958E+05 2.58817E+05
 -1       106-6.31102E+06-6.59551E+05-2.22851E+05 3.83833E+06 4.88183E+06-8.56486E+05
 -1       107 2.52821E+06 1.07565E+07 7.48914E+05 1.93019E+06 4.59901E+06 5.90037E+05
 -1       108 3.86992E+06 6.52745E+06-5.33887E+05 6.01608E+06 3.62661E+06 4.92402E+05
 -1       109-1.55596E+06 1.05540E+06-1.67135E+06-8.89775E+06 1.31650E+06-2.31903E+06
 -1       110 8.38048E+05-8.11843E+05-1.48901E+06-8.80237E+06 1.83297E+06-1.38440E+06
 -1       111-8.49516E+04-1.24215E+06-1.03825E+06-9.42542E+06 2.89804E+06 1.29831E+06
 -1       112-9.06845E+06-2.74940E+06-2.59874E+06-7.10595E+06-5.04758E+05 1.76470E+06
 -1       113-1.95927E+07-8.68323E+06-1.25632E+06-1.36765E+06 7.36614E+04 1.94300E+06
 -1       114-1.64878E+07-6.82185E+06 4.93644E+05-5.27822E+06 1.94851E+06 1.48406E+06
 -1       115-1.39744E+07-1.02539E+07-1.25730E+06 4.12012E+05-2.31325E+06-2.89730E+05
 -1       116 1.28497E+07 8.25148E+05 7.00445E+05 1.25835E+06-7.68068E+05-4.10030E+05
 -1       117 6.84267E+06-2.45843E+06-2.20459E+05 6.55374E+05 3.50222E+06 3.39869E+05
 -1       118 2.82495E+06-1.03161E+07-8.52412E+05-2.59103E+05 2.02247E+06-7.15706E+05
 -1       119 1.99668E+07 2.62015E+06 8.94281E+05 2.69433E+06 1.62135E+06-1.35005E+06
 -1       120 1.62054E+07 3.81560E+06-3.15469E+05-1.31432E+03 1.18443E+06-7.04385E+05
 -1       121 1.25760E+07 3.46663E+06 1.49089E+04-4.36243E+06 1.42450E+05-3.30066E+05
 -1       122-6.97076E+06-5.30074E+06-9.49068E+05-9.81400E+06 3.38478E+06 3.81900E+06
 -1       123-8.67025E+06-1.70052E+07-1.65773E+06-7.23696E+05 7.05271E+05 1.74540E+05
 -1       124 6.56793E+06 5.92454E+05-1.80592E+05-4.02478E+06 3.81220E+06-5.18372E+05
 -1       125-2.99974E+06-4.05970E+06-4.29331E+05-9.10336E+06 5.53626E+06 1.08810E+06
 -1       126-3.52313E+06-9.77542E+06-8.16655E+05-1.53558E+06 4.17252E+06 3.48337E+05
 -1       127-8.07367E+06-8.06103E+05-2.41430E+05-4.60458E+06-9.55361E+05 8.18585E+05
 -1       128-2.04217E+07-1.71205E+06-6.75275E+06-1.97461E+06 1.40148E+06 2.48737E+06
 -1       129-2.38448E+07-3.60765E+06-6.92697E+06-1.21698E+05-3.33168E+05 5.64459E+06
 -1       130-1.38641E+07-1.14916E+06-6.41720E+06 9.53953E+05-2.17883E+06 3.41454E+06
 -1       131 1.07215E+06 1.39999E+05-4.07992E+06-5.37694E+05-2.25744E+05 7.79666E+06
 -1       132 5.53810E+06 1.76312E+05 4.18168E+06-1.70652E+05 7.42864E+05 6.70302E+06
 -1       133 1.28935E+07 2.41934E+05 4.57152E+06-3.08414E+05-1.59355E+06 4.42217E+06
 -1       134 5.20551E+06 7.23529E+05-1.65168E+05 4.64732E+06-1.34696E+05 9.75772E+04
 -1       135 2.24609E+07 3.72471E+06 4.51486E+06 5.95366E+05 3.06364E+05 5.34089E+06
 -1       136 1.68998E+07-1.01348E+05 3.04164E+06 2.39523E+06 1.21923E+06 3.63273E+06
 -1       137 2.38285E+06 4.05542E+05 2.71543E+05 4.10808E+06 2.96968E+06 3.24738E+06
 -1       138 7.52898E+05-5.22042E+05-1.37611E+06-1.61909E+06 2.77633E+06 3.63217E+06
 -1       139-1.08761E+07-1.08148E+06-9.77611E+06 1.33768E+05-2.90114E+05 7.23659E+06
 -1       140 1.85226E+07 2.71714E+06 3.19288E+06-2.94495E+05 4.65689E+05 5.89926E+06
 -1       141-8.90397E+06-1.03819E+06-7.57375E+06-2.93360E+06 2.02414E+06 4.79732E+06
 -1       142-3.61632E+06-2.53460E+05-2.16714E+06 1.08260E+06 4.36955E+06 8.05422E+06
 -1       143 1.00340E+07 1.21942E+06 2.55847E+06 5.22701E+05 4.21473E+06 1.06423E+07
 -1       144-4.87440E+06-1.32204E+06-4.23096E+06-6.74648E+05 3.26563E+06 9.69350E+06
 -1       145 3.00979E+06 4.60654E+05 2.69582E+06-4.53547E+06 8.77064E+05-3.81503E+06
 -1       146 2.13658E+07 2.52056E+06 5.57205E+06-1.85944E+06-5.92697E+05-4.82764E+06
 -1       147 2.62751E+07 1.83966E+06 8.68208E+06-2.33942E+05 1.82170E+05-6.55038E+06
 -1       148 1.28169E+07-1.09283E+05 8.76517E+06 8.97424E+05-1.06385E+06-4.32570E+06
 -1       149-7.13165E+04-7.22262E+05-4.63244E+06-8.60460E+05 2.71584E+06-9.25694E+06
 -1       150 4.63272E+06-2.34771E+05 9.11885E+06-5.89618E+05 3.65869E+06-9.38431E+06
 -1       151-1.11350E+07-1.37560E+05-6.46084E+06-1.82528E+06-1.56817E+06-4.96373E+06
 -1       152-8.37191E+06-1.64707E+06-1.76001E+06 3.66843E+06-6.51578E+05-1.16062E+06
 -1       153-1.75947E+07-1.63857E+06-4.56635E+06 2.15204E+06 1.37814E+06-6.00699E+06
 -1       154-2.23047E+07-2.36428E+06-7.45048E+06 2.95261E+05 1.88719E+06-8.53230E+06
 -1       155-3.93410E+06-1.09696E+06-3.13607E+06 4.00936E+06 4.85395E+06-5.49987E+06
 -1       156-2.10602E+06-4.01664E+05-7.18570E+05-1.31390E+06 3.94293E+06-4.44513E+06
 -1       157 1.72257E+07 8.38251E+05 9.52664E+06 1.94869E+05 1.83569E+06-1.04220E+07
 -1       158-1.37950E+07-1.11738E+06-6.77124E+06-1.02952E+06 1.91541E+06-1.07245E+07
 -1       159 5.62207E+06-6.85589E+05 4.27632E+06-3.83048E+06 1.81311E+06-4.59501E+06
 -1       160 5.59267E+06 5.80237E+05 2.96889E+06-3.14305E+05 5.04967E+06-9.80442E+06
 -1       161 1.20045E+07 8.76658E+05 7.02318E+06-1.47245E+06 4.78678E+06-1.20790E+07
 -1       162-5.86698E+06-8.96544E+05-1.20151E+06 4.44810E+05 6.58011E+06-1.24335E+07
 -1       163 3.14147E+05-1.68049E+06 5.81933E+06-4.83972E+04 3.92167E+04-9.77311E+05
 -1       164 3.27064E+05-6.59595E+05 3.95594E+06 1.32870E+06 4.52033E+06-9.57926E+05
 -1       165 5.45670E+05 9.78623E+05-9.22406E+05-1.16910E+05 4.35660E+06-9.96073E+05
 -1       166-5.59556E+05 1.14242E+06-5.40722E+06-9.83616E+05-2.98046E+05-4.48485E+05
 -1       167-8.01725E+05 3.44266E+06-1.69949E+06-7.82608E+05 3.34341E+06 7.22036E+05
 -1       168 6.67121E+04 7.53338E+06-1.09398E+05 4.42551E+04 2.45760E+06-2.69293E+05
 -1       169 4.47750E+05 6.85175E+06 4.35387E+06-2.50599E+05-2.85997E+06-4.48712E+05
 -1       170-1.48768E+05-5.90855E+06-5.86088E+06 2.25908E+05-3.28796E+06 3.25869E+05
 -1       171-9.38300E+05-2.15650E+05 1.98682E+06 9.18133E+04-1.25768E+06-1.64557E+05
 -1       172-1.16393E+06 1.01156E+06-3.91359E+06 1.86173E+05-8.70377E+05 1.61066E+06
 -1       173-2.09708E+05-4.61640E+06-3.07832E+06 3.22317E+04-3.89757E+05-1.08287E+06
 -1       174-8.50316E+05-4.93764E+06 4.43538E+05-1.39159E+05 3.04755E+06-2.33590E+05
 -1       175-3.28734E+05-1.70551E+06 8.71460E+05 8.38794E+05 4.35342E+06 1.14867E+06
 -1       176-8.59794E+05 6.48050E+05-3.83870E+06-1.12440E+06 3.62879E+06-1.27279E+06
 -1       177-7.57604E+04 6.35980E+05-2.05843E+06 2.01652E+05 8.73063E+06-1.62562E+05
 -1       178 2.50902E+04 5.72804E+06 1.69185E+06 1.30264E+05 7.77996E+05-1.42863E+06
 -1       179 1.05219E+06 2.85726E+06-7.55198E+05 1.10744E+05 5.33697E+06 6.42808E+05
 -1       180 8.72864E+03-1.92880E+06-2.44192E+06-4.01215E+05 6.62670E+06 3.17255E+03
 -1       181 2.37394E+06 1.01741E+06 1.01741E+06-9.25149E+06-7.77309E+00-3.82881E+06
 -1       182 3.27026E+06 1.40157E+06 1.40155E+06 1.08907E+06-2.52750E+01-3.82849E+06
 -1       183 1.32200E+06 3.87854E+05 9.38986E+05-6.76189E+06 8.56509E+05-3.79890E+06
 -1       184 2.96041E+06 1.26874E+06 1.26874E+06 1.05963E+07-3.55477E+00-2.93782E+06
 -1       185 2.10753E+06 9.03218E+05 9.03224E+05 1.10936E+07-6.38839E+00-2.06923E+06
 -1       186 2.30142E+06 1.44499E+06 8.16072E+05 1.27216E+07-1.19957E+05 1.12398E+06
 -1       187-1.37130E+04-2.58720E+05-3.57763E+05 1.12220E+07-1.60159E+05 3.65650E+06
 -1       188-1.38882E+06-5.26284E+04-1.46644E+04-1.03556E+07-3.01872E+05 4.68410E+06
 -1       189-8.95615E+05 2.01793E+06-7.96580E+05-5.63322E+06 1.39331E+06 5.74985E+06
 -1       190-3.33670E+06-1.43002E+06-1.43001E+06 3.52279E+06-1.62747E+01 4.99950E+06
 -1       191-9.88014E+05-2.75045E+05-3.84220E+05-9.67440E+06 3.42527E+04 5.01513E+06
 -1       192 1.99930E+05 8.56894E+04 8.56925E+04-9.37530E+06-1.19049E+01-1.73681E+06
 -1       193-1.17150E+06-1.05343E+06-9.18321E+05 8.95909E+06 9.36554E+05-3.72870E+06
 -1       194 3.62335E+06 1.48069E+06 1.56853E+06 9.17687E+06 3.58561E+05 6.85080E+06
 -1       195 2.32654E+05 9.97143E+04 9.97148E+04-9.72116E+06-1.60245E+01 1.32468E+06
 -1       196 1.33479E+05-1.55632E+06 9.49223E+04-5.43609E+06 1.21878E+06 2.13653E+06
 -1       197 9.49538E+05-2.32454E+05 2.42990E+05 1.95878E+06 6.47102E+05-3.34747E+06
 -1       198-5.28439E+05-2.26493E+05-2.26488E+05 4.60671E+06-5.81701E+01 2.31518E+06
 -1       199-1.31924E+07 2.18846E+06-2.28019E+06-1.32200E+06 9.47430E+06-2.87384E+06
 -1       200-1.96647E+06 4.37668E+06-8.36449E+05-8.89003E+05 1.01283E+07 1.49730E+05
 -1       201-4.72955E+06 3.16762E+06-7.23264E+04 5.89682E+05 1.36064E+07-7.28388E+05
 -1       202-1.30163E+06 1.31743E+06-3.03963E+06-1.20439E+06 1.06054E+07-2.33772E+06
 -1       203-9.96348E+05 3.58210E+06-1.57477E+06-3.63079E+05 1.44656E+07-5.31168E+05
 -1       204 4.84804E+06-2.03185E+06 1.16119E+05 4.70239E+05 9.54234E+06-5.09993E+05
 -1       205 7.21718E+06-5.11482E+04 4.21956E+06 7.30454E+05 3.32825E+06-2.02357E+06
 -1       206-2.33609E+06-7.34250E+05-5.04668E+06 1.50149E+05 5.53507E+06 3.67967E+06
 -1       207-2.79878E+06-7.54346E+06-2.02103E+06-3.41229E+04 6.15878E+06 6.71696E+05
 -1       208-1.08445E+06-4.79421E+05-1.60604E+06 4.02993E+05 1.02049E+07 1.50641E+06
 -1       209-3.21376E+05 2.03318E+06-3.41111E+04 1.96208E+06 2.54406E+07 1.28036E+05
 -1       210-1.45374E+06 2.71248E+06 7.52245E+05-4.88488E+05 2.09623E+07 1.55291E+06
 -1       211 4.78306E+06 2.88557E+06 1.41596E+06 8.51957E+05 1.47344E+07 4.94009E+06
 -1       212 2.86853E+05-3.79219E+04-4.82004E+05-1.77980E+05 2.24186E+07 3.63005E+06
 -1       213 4.14643E+06 4.58684E+05 2.33153E+04 2.73012E+06 1.48802E+07 6.13511E+06
 -1       214 1.58206E+06 2.66950E+04-1.49363E+06-6.34119E+04 1.19987E+07 7.94053E+06
 -1       215-3.81916E+05 7.57300E+04-1.09283E+06-4.38678E+05 2.52230E+07-1.44191E+06
 -1       216-2.65656E+06 9.92732E+05 5.52059E+04 2.49241E+06 1.65037E+07-6.02221E+06
 -1       217-1.88104E+05 1.42406E+06-8.25641E+05-1.00890E+06 2.52996E+07-3.04411E+06
 -1       218-6.28055E+06 1.08087E+06-1.42454E+06 3.89621E+05 1.61904E+07-6.58994E+06
 -1       219-1.78088E+06 2.35747E+05 1.84185E+05-1.07352E+05 1.57219E+07-8.95526E+06
 -1       220 7.31763E+05-6.30060E+05-7.80771E+05-2.31749E+06 2.25146E+07-5.32494E+05
 -1       221-2.45481E+06 2.75988E+05-1.30484E+06-6.13580E+05 1.44317E+07 6.08980E+06
 -1       222-9.79159E+06-2.40076E+06-5.48647E+06-6.60039E+05 1.04452E+07 6.53090E+06
 -1       223-8.87257E+06-5.00106E+06-5.24462E+05-7.87334E+06 2.35539E+06 4.19558E+06
 -1       224-1.31471E+07-5.44859E+06-3.29784E+06-4.88979E+06 4.39304E+06 5.54952E+06
 -1       225-7.93384E+06-7.57243E+06-1.73584E+06-2.53722E+06 1.13445E+07 2.17388E+06
 -1       226-1.45909E+07-2.65642E+06-1.23476E+06 3.04598E+05 5.78703E+06 2.55117E+06
 -1       227 1.13389E+07 2.06176E+06 2.71476E+06-6.83256E+06 2.98646E+06-5.29254E+06
 -1       228-4.40909E+06-3.15434E+06-3.31532E+05-4.82427E+06 1.59186E+07 2.57546E+06
 -1       229-1.84573E+06-3.80060E+06-4.46306E+05-4.81007E+06 1.53373E+07 1.76587E+05
 -1       230 6.52978E+06-1.83417E+05 4.21694E+05-1.63114E+06 1.53203E+07-2.46156E+06
 -1       231 4.34167E+06 1.55912E+06-1.44934E+05-6.19379E+06 1.37253E+07-2.03484E+06
 -1       232-5.02866E+05-1.87561E+06-3.06186E+06-1.04623E+06 1.03365E+07 6.82341E+06
 -1       233 1.50394E+07 1.19874E+06 3.27464E+06-1.63417E+06 4.27388E+06-4.92985E+06
 -1       234 9.73354E+06 7.59461E+05 4.10753E+06 8.85578E+04 7.32500E+06-7.13199E+06
 -1       235 9.54952E+06 1.27716E+06 3.10759E+06-2.70905E+06 1.35548E+07-7.68997E+06
 -1       236 3.77150E+06 2.22474E+06 3.05602E+06-1.13287E+06 1.58894E+07-8.93512E+06
 -1       237-1.23273E+06-1.31653E+06-5.25294E+05-2.34856E+05 1.44735E+07 9.26805E+05
 -1       238 1.03275E+06-4.66550E+06-1.73677E+06-5.89993E+05 1.21927E+07 3.18582E+05
 -1       239 5.21446E+06-8.08892E+05 9.09663E+05-5.40974E+06 3.74513E+06-6.41968E+06
 -1       240-1.20535E+06-4.82677E+05-6.23962E+05-1.17529E+06 5.22509E+06-6.19329E+06
 -1       241 5.34975E+06 5.93113E+06 2.51376E+06-9.28785E+05 1.51439E+06 2.81252E+06
 -1       242 2.63771E+06 3.12860E+05-6.19226E+04-1.67210E+05 4.19756E+06 3.98946E+06
 -1       243 2.97254E+06 2.63881E+06 7.08990E+05-2.87306E+05 1.27886E+07 4.29490E+06
 -1       244-2.53496E+05 9.09639E+06-4.03873E+05-3.57876E+05 9.31100E+06-6.99328E+05
 -1       245 2.37570E+05 3.36919E+06-9.96355E+04 6.41687E+04 1.33483E+07 3.17465E+05
 -1       246-2.74118E+06 8.78853E+05 6.74067E+05 1.03332E+07 1.58502E+06-2.12457E+06
 -1       247-9.79267E+05 7.99035E+05-5.25689E+04 7.81575E+06 1.32189E+07-4.52295E+05
 -1       248-7.07469E+05-7.58051E+05-3.61774E+05 6.18756E+06 1.18267E+07-1.02353E+06
 -1       249 2.52905E+06 1.23246E+06-1.86827E+05 1.05619E+07 1.05220E+07 3.36104E+06
 -1       250-4.93809E+06-1.11604E+06-1.14100E+06 8.85144E+06 1.28535E+06-3.02066E+06
 -1       251-9.22095E+05 1.35618E+06-1.38353E+05-1.21479E+05 1.74471E+07-8.54860E+04
 -1       252 1.50750E+06 9.51440E+05-2.18596E+05-4.28600E+05 1.90032E+07-2.17019E+06
 -1       253 3.83767E+06 8.07172E+04 1.59849E+06-1.63588E+06 1.41154E+07-5.83098E+06
 -1       254 8.96544E+05 6.96565E+05-6.91153E+05-6.17066E+06 1.41582E+07-4.61579E+05
 -1       255 1.15884E+07 6.88177E+06 1.82286E+06 4.34237E+06 4.47485E+06 5.43311E+06
 -1       256-1.06192E+07-1.18406E+06-2.25238E+06 1.55510E+06 6.73746E+06-6.45632E+06
 -1       257-4.27893E+05-1.48896E+06-1.42889E+05 6.31351E+05 1.35444E+07 4.59016E+06
 -1       258 1.00843E+06-4.38802E+04 4.32184E+04-2.31804E+06 1.31946E+07-1.44714E+06
 -1       259-3.68895E+06-4.55192E+05 2.85650E+05 5.66576E+06 5.01404E+06-6.40662E+06
 -1       260 7.37481E+06 2.80808E+05 9.58542E+05 9.94096E+06 2.10580E+06 6.50903E+06
 -1       261 5.14448E+06 6.03548E+06-4.44131E+04 5.42510E+06 1.40828E+07 1.74780E+06
 -1       262-8.42606E+06-5.99625E+05-2.03779E+06 6.54546E+06 4.44538E+06-6.36765E+06
 -1       263-1.42976E+06 9.77728E+05-4.14366E+04-5.13160E+05 1.57165E+07-6.99915E+06
 -1       264 2.39371E+06 8.52122E+05 2.58407E+06 5.38580E+05 1.00388E+07-5.58233E+06
 -1       265-5.77144E+06-2.91829E+06 1.04208E+06-7.24823E+06 5.33704E+06 5.34104E+06
 -1       266-2.39266E+05-8.56151E+05-5.96010E+05-7.99833E+06 4.27514E+06 2.26697E+06
 -1       267-4.35232E+06 1.23687E+06-6.20706E+05-1.42434E+06 5.43150E+06 7.64191E+06
 -1       268 2.95974E+06 1.29591E+06 8.01262E+05 1.66989E+06 4.02004E+06 7.17347E+06
 -1       269 1.15372E+07 5.70699E+06 5.51592E+05 6.56270E+04 8.34029E+06 9.31379E+05
 -1       270 2.68504E+06 4.83482E+04-1.26812E+06-9.44526E+06 2.69034E+06-2.49777E+06
 -1       271-2.96293E+06 1.79830E+06 2.79235E+05 3.23697E+06 1.60608E+07-5.12975E+05
 -1       272 4.41417E+06 8.59978E+05 2.46105E+05-8.58592E+06 1.34279E+06-3.63620E+06
 -1       273 4.42587E+06 9.98058E+06-8.48871E+04 2.50410E+06 1.23443E+07 5.07704E+05
 -3
    1PSTEP                        30           1           1          
    1PGM                1.000000E+00                                  
    1PGK                1.987188E+12                                  
    1PHID                         -1                                  
    1PSUBC                         0                                  
    1PMODE                        10                                  
  100CL  110 2.24357E+05         273                     2   10MODAL      1
 -4  TOSTRAIN    6    1
 -5  EXX         1    4    1    1
 -5  EYY         1    4    2    2
 -5  EZZ         1    4    3    3
 -5  EXY         1    4    1    2
 -5  EYZ         1    4    2    3
 -5  EZX         1    4    3    1
 -1         1-1.84005E+00-1.75953E+00-2.65643E+00-2.25928E+00-8.81177E+00-1.93176E+00
 -1         2 3.96466E+00-1.18890E+00 8.09519E-01-1.33110E+00-8.29035E+00-2.82889E+00
 -1         3 7.59024E+00-6.03327E+00 8.82580E+00-5.44636E-01-1.06118E+01 1.42924E+00
 -1         4-5.05216E+00 1.74548E+00-5.14972E+00 4.14916E+00-1.04290E+01 1.96319E+00
 -1         5 9.44526E+01-1.06881E-05-2.93096E-05-6.74916E+01 1.41493E-05 2.50582E+01
 -1         6-9.91547E+01 3.53765E-05 2.63856E-05 8.93745E+01-5.27437E-07 3.23504E+00
 -1         7-5.02896E+01 1.59366E+01 3.66199E+00-5.26432E+01-3.16831E+00-1.76435E+01
 -1         8 4.69330E+01-9.06141E+00-3.28045E-05 6.00893E+01-2.78267E+00-2.20998E+01
 -1         9 1.78837E+01-3.99519E-05 1.64115E-06 6.92680E+01-4.15246E-05-1.44584E+01
 -1        10 2.12903E+01 3.01259E+00-5.37473E+00 1.02347E+02-5.27866E+00 3.18969E+01
 -1        11 9.39985E+01-1.62569E+01-2.29167E+01 1.35051E+01-9.23382E+00-2.13312E+00
 -1        12 1.26643E+02-1.34713E+01-3.87623E+01-1.90147E+00-1.99977E+01 1.61142E+01
 -1        13-1.54465E+01 2.28434E+01-6.82838E+00-5.91077E+00-2.22425E+00 1.44372E+01
 -1        14-1.40116E+01 6.93534E+01-1.99161E+01-3.92046E+00-1.29534E+01-1.27116E+01
 -1        15-9.82857E+01 1.65790E+01 2.14400E+01 5.03525E+00-1.57837E+01-4.50622E+00
 -1        16-1.22619E+02 3.97902E+01 1.43184E+01-1.25454E+01-1.82810E+01-3.21708E+01
 -1        17-5.94383E+00 1.68799E-05 4.09810E-05-6.15641E+01-6.52373E-05-8.26365E+00
 -1        18-3.38142E+00-8.57387E-01-2.91432E+00-7.09335E+01-3.82566E-01 2.86637E+01
 -1        19-8.73933E+01 1.14785E+01 2.27383E+01-1.59048E+01-5.29719E+00-1.06430E+01
 -1        20-1.28380E+02 2.05865E+01 3.46242E+01 5.62439E+00-1.68004E+01 1.43281E+01
 -1        21 7.88167E+00-1.30141E+01 2.58369E+00-1.90852E-01-2.07009E+00 1.27842E+01
 -1        22 1.30279E+01-6.32659E+01 1.59194E+01-1.96533E+00-2.03723E+01-9.26547E+00
 -1        23 9.77108E+01-1.24323E+01-3.01768E+01-4.53506E+00-1.79846E+01-6.00999E+00
 -1        24 1.27633E+02-3.66530E+01-1.77934E+01 1.72052E+01-1.57609E+01-2.59494E+01
 -1        25 4.31470E+00 2.02170E+01-4.45284E+01 2.26047E+00-2.39717E+01 2.95454E+01
 -1        26-6.57591E+00-1.52744E+01 3.47670E+01 4.64265E-01-2.46399E+01 2.28741E+01
 -1        27-7.02437E+00 7.90197E+00-8.27928E+00-4.79758E+01-2.52379E+00 2.31890E+01
 -1        28-2.78171E+01 5.61752E+00-7.68969E-01 4.04689E+01 2.61933E+00 6.13832E+00
 -1        29-7.86451E+00-2.56804E+01 5.54602E+01-6.44042E-01-3.40619E+00-2.79517E+01
 -1        30 1.19589E+01 1.03869E+01-3.76529E+01-9.48367E+00-7.99069E+00-2.57027E+01
 -1        31 2.02939E+00-5.28655E+00 8.95646E+00-4.34516E+01-1.05291E+00-2.37346E+01
 -1        32 7.80254E+00-1.71397E+00-7.89320E+00 4.40636E+01 4.17103E+00-1.99572E+01
 -1        33-2.79441E+01 9.05385E+00 6.51117E+00 6.14133E+01 1.53694E+01-1.05974E+01
 -1        34 3.09189E+01 6.19420E+01-3.85331E+01 3.05997E+01 2.23999E+01 1.20128E+01
 -1        35-4.15607E+01 1.63166E+01 1.26338E+01 9.92224E-01 3.71121E+01-4.78074E+00
 -1        36 2.25007E+01 1.69055E+00-1.37181E+01-6.45961E+01 2.39664E+01-1.01192E+01
 -1        37-4.18819E+01-3.50345E+01 3.18611E+01-4.55506E+01 3.58303E+01 1.90089E+01
 -1        38 5.34511E+01-2.05300E+01-1.71708E+01 2.54779E+00 4.15387E+01-4.12654E+00
 -1        39-5.60689E+01 2.20618E+01-1.42054E+01-6.18134E+00 2.42546E+01 5.27407E+01
 -1        40 3.59651E+01-1.43412E+01-6.05444E+00-5.64175E+00 2.61262E+01 6.25911E+01
 -1        41 4.25498E+01-1.46835E+01-3.72620E+00 1.61513E+01 3.44548E+01 5.47642E+01
 -1        42 6.82009E+01-2.92881E+01 9.22369E+00-2.03564E+01 1.96718E+01-5.98068E+01
 -1        43 1.04324E+01-8.88792E+00 1.46614E+01-3.56000E+00 4.78967E+01-9.01500E+01
 -1        44-3.78212E+01 1.30973E+01-6.37348E-01 1.45098E+01 4.78350E+01-6.87402E+01
 -1        45 3.83435E-01-8.57616E-01 1.78594E+00 5.01522E+00 7.11227E+01 3.32164E+00
 -1        46-1.57364E+00 1.77562E+01-1.46844E+01-1.02620E+00 4.90674E+01 7.59301E-01
 -1        47 4.02237E-01 3.82636E+00-4.54253E+00 2.23556E+00 2.31393E+01-1.49051E+00
 -1        48 9.94867E+00-3.69445E+00-4.01846E+00-4.37534E+01 9.98280E+00-2.09231E+01
 -1        49-3.12926E+00-2.62544E+00 4.06255E+00 6.46740E+01 5.14475E+00-1.69754E+01
 -1        50-2.84789E+00 7.34999E-01 4.64820E+00-1.53398E+01 1.87380E+01 4.69171E+01
 -1        51-1.16414E+01-1.97196E+00-2.35724E+00-4.83246E+00 1.12469E+02 2.11581E+01
 -1        52-1.55254E+01 2.41034E+01-3.80365E+00-6.12040E-01 1.47332E+02-4.46345E+00
 -1        53 1.30088E+01 4.06004E+00-7.62591E+00-1.48793E+01 1.61839E+02-2.76536E+01
 -1        54 1.18337E+00 6.21260E-01-1.43148E+00 1.69454E+01 1.58861E+02 7.67875E+00
 -1        55 2.10515E+01-2.89065E-05 6.74169E-06 6.60352E+01-1.09490E-05-2.01043E+01
 -1        56 1.42012E+01-5.09972E-05-3.45940E-06 7.49887E+01-7.21002E-05 4.71452E+00
 -1        57-3.56247E+01 3.53765E-05 2.63856E-05 9.27827E+01-5.27437E-07 2.24959E+01
 -1        58-6.36242E+00-6.46082E+00-4.81881E+00 5.25197E+01 9.63260E-02-1.28291E+00
 -1        59 1.50386E+02-2.22621E+01-3.57967E+01-2.05670E+00-2.48199E+01 1.96716E+00
 -1        60 6.36394E+01-1.31197E+01-2.13631E+01-3.76240E+00-4.87270E+00 1.12550E+01
 -1        61-3.19767E+00-4.66364E-01-9.91205E-01 2.94432E+00-1.94607E+00 1.85198E+01
 -1        62-1.60344E+01 5.41937E+01-2.15389E+01-5.37864E+00-1.36684E+01 3.49872E+00
 -1        63-9.17604E+00 4.71601E+01-1.51310E+01 4.74522E-02-9.49450E+00-1.89839E+01
 -1        64 8.56452E-01-7.42634E+00 5.16479E+00 3.01499E+01-4.10542E+00-7.07213E+00
 -1        65-1.43958E+02 3.14616E+01 2.69724E+01-7.22365E+00-2.13174E+01-1.82551E+01
 -1        66-6.05289E+01 1.56316E+01 1.24028E+01-5.29802E+00-8.89033E+00-1.27655E+01
 -1        67-9.49083E+00 2.27232E-05 5.48197E-05-5.89672E+01-4.09480E-05-1.88305E+01
 -1        68-5.82230E+00 2.06703E-05 3.63692E-05-6.38121E+01-9.46616E-05 1.16361E+01
 -1        69 4.10258E+01-1.06881E-05-2.93096E-05-6.85482E+01 1.41493E-05 2.85416E+01
 -1        70 8.10172E+00 1.95197E+00 5.35283E+00-4.04597E+01-2.58408E+00 4.26797E+00
 -1        71-1.44729E+02 2.31774E+01 3.28324E+01-5.06374E+00-1.85019E+01 1.44276E+00
 -1        72-6.65436E+01 1.34970E+01 1.70525E+01 3.58976E+00-8.10899E+00 7.44569E+00
 -1        73 3.59612E+00-9.63109E-01-1.70888E+00-1.30732E+00-4.07216E+00 1.18515E+01
 -1        74 9.51467E+00-4.69836E+01 1.51087E+01-1.74262E+00-1.97776E+01 6.51857E+00
 -1        75 1.21104E+01-4.84354E+01 1.59477E+01-5.67537E+00-1.26765E+01-1.74657E+01
 -1        76-7.83141E-01 7.08844E+00-1.01697E+01-2.82999E+01-7.90612E+00 1.88840E+00
 -1        77 1.39413E+02-2.93921E+01-3.43912E+01 1.05967E+01-1.47100E+01-1.66226E+01
 -1        78 6.44397E+01-1.63557E+01-8.97965E+00 7.09555E+00-1.02273E+01-1.10687E+01
 -1        79 1.03058E+01 1.70911E+01-3.77935E+01 6.19501E+00-1.35369E+01 1.56733E+01
 -1        80-2.25084E+00 4.02736E+00-7.48640E+00-1.14791E+00-3.25011E+01 2.75353E+01
 -1        81-6.40217E+00-1.57457E+01 2.75277E+01-2.88552E+00-1.41239E+01 1.37446E+01
 -1        82 5.74256E+01-1.06881E-05-2.93096E-05-6.68618E+01 1.41493E-05 2.77182E+01
 -1        83-1.91840E+01-1.93447E-04 1.03064E-06-1.61897E+00-9.85603E-05 9.79778E+00
 -1        84-7.33920E+01 3.53765E-05 2.63856E-05 7.11345E+01-5.27437E-07 5.62972E+00
 -1        85-1.02816E+01-2.03701E+01 4.45468E+01 5.78556E-01-3.70686E+00-1.44006E+01
 -1        86-9.53558E-01 2.08924E+00 2.10136E+00-4.27637E+00-1.55728E+01-2.65723E+01
 -1        87 8.76625E+00 1.29398E+01-3.37977E+01-5.03902E+00-7.42025E+00-1.84290E+01
 -1        88-1.40773E+01-1.07206E+00 4.35340E-05-4.94652E+01-6.47668E+00-2.69517E+01
 -1        89 1.01615E+01 1.35392E-04 2.12054E-05 9.31127E-01-1.54838E-04-1.20126E+01
 -1        90 3.06651E+01-6.16305E+00-5.25776E-05 5.72901E+01-4.84316E+00-2.37348E+01
 -1        91 2.27734E+00-2.18027E-01 4.26947E+00 6.02233E+01 4.74817E+00-1.70784E+01
 -1        92-6.56561E+01 5.64670E+00 1.77069E+01 3.62685E+01 2.17482E+00-8.42404E+00
 -1        93-4.40813E+00 7.29642E+00-2.99723E-01 6.10069E+01 7.58364E+00-1.23494E+01
 -1        94 9.08197E-02 1.60537E+01-4.73127E+00 7.39598E+01 5.89948E+00 6.43022E+00
 -1        95 5.19575E+01-9.52380E+00-1.29963E+01 6.00128E+01-7.29179E+00 1.66322E+01
 -1        96 6.35301E+01 3.28475E+01-3.97423E+01 2.36401E+01 7.93582E+00 7.76353E+00
 -1        97 8.02037E+01 3.16864E+01-4.24730E+01 1.32338E+01-4.08161E+00 1.24149E+01
 -1        98 5.27576E+01 2.75277E+01-3.09065E+01-5.27241E+00-1.10813E+01-4.05353E-01
 -1        99-6.58251E+01 2.49807E+01 1.43208E+01-9.64103E+00-6.07363E+00-7.74941E-01
 -1       100-2.31098E+01 6.12419E+01-1.37728E+01-1.69324E+00 8.61133E+00 4.23842E-01
 -1       101-3.73693E+01 2.15626E+01 5.96741E+00-7.58038E+00 1.17586E+01 3.88422E+00
 -1       102-8.66126E+01 1.86460E+01 1.82008E+01-6.62939E+00 4.83476E+00-1.69063E+01
 -1       103-7.00190E+01 6.69480E+00 2.75739E+01-3.82844E+00 1.19807E+01-8.00836E+00
 -1       104 2.24468E+01 3.40252E+01-2.54038E+01 7.05947E+01 7.25536E+00 1.64632E+01
 -1       105 2.07691E+01 7.95056E+01-4.26817E+01 4.22781E+00-1.52073E+00 1.68231E+00
 -1       106-3.02315E+01 6.50305E+00 9.34160E+00 2.49492E+01 3.17319E+01-5.56716E+00
 -1       107-4.61704E+00 4.88667E+01-1.61824E+01 1.25462E+01 2.98936E+01 3.83524E+00
 -1       108 1.03592E+01 2.76332E+01-1.82655E+01 3.91045E+01 2.35730E+01 3.20061E+00
 -1       109-6.85586E+00 1.01179E+01-7.60591E+00-5.78354E+01 8.55722E+00-1.50737E+01
 -1       110 7.64152E+00-3.08277E+00-7.48436E+00-5.72154E+01 1.19143E+01-8.99861E+00
 -1       111 2.99584E+00-4.52596E+00-3.20058E+00-6.12652E+01 1.88372E+01 8.43902E+00
 -1       112-3.73200E+01 3.75377E+00 4.73307E+00-4.61887E+01-3.28093E+00 1.14705E+01
 -1       113-8.30542E+01-1.21426E+01 3.61323E+01-8.88971E+00 4.78799E-01 1.26295E+01
 -1       114-7.29465E+01-1.01181E+01 3.74326E+01-3.43084E+01 1.26653E+01 9.64641E+00
 -1       115-5.26053E+01-2.84219E+01 3.00560E+01 2.67808E+00-1.50361E+01-1.88324E+00
 -1       116 6.19601E+01-1.61995E+01-1.70100E+01 8.17926E+00-4.99244E+00-2.66520E+00
 -1       117 3.82317E+01-2.22255E+01-7.67865E+00 4.25993E+00 2.27644E+01 2.20915E+00
 -1       118 3.08775E+01-5.45393E+01 6.97467E+00-1.68417E+00 1.31461E+01-4.65209E+00
 -1       119 9.45625E+01-1.81909E+01-2.94091E+01 1.75131E+01 1.05388E+01-8.77531E+00
 -1       120 7.57768E+01-4.75689E+00-3.16088E+01-8.54311E-03 7.69881E+00-4.57850E+00
 -1       121 5.76579E+01-1.55330E+00-2.39895E+01-2.83558E+01 9.25926E-01-2.14543E+00
 -1       122-2.54791E+01-1.46240E+01 1.36619E+01-6.37910E+01 2.20010E+01 2.48235E+01
 -1       123-1.53569E+01-6.95339E+01 3.02245E+01-4.70403E+00 4.58426E+00 1.13451E+00
 -1       124 3.22219E+01-6.61874E+00-1.16435E+01-2.61611E+01 2.47793E+01-3.36942E+00
 -1       125-8.26517E+00-1.51549E+01 8.44251E+00-5.91718E+01 3.59857E+01 7.07266E+00
 -1       126-1.72753E+00-4.23674E+01 1.58646E+01-9.98130E+00 2.71214E+01 2.26419E+00
 -1       127-3.87971E+01 8.44213E+00 1.21125E+01-2.99298E+01-6.20985E+00 5.32080E+00
 -1       128-8.94113E+01 3.22015E+01-5.63142E-01-1.28349E+01 9.10965E+00 1.61679E+01
 -1       129-1.03422E+02 2.81194E+01 6.54380E+00-7.91040E-01-2.16559E+00 3.66898E+01
 -1       130-5.79712E+01 2.46762E+01-9.56604E+00 6.20069E+00-1.41624E+01 2.21945E+01
 -1       131 1.12707E+01 5.21165E+00-2.22178E+01-3.49501E+00-1.46734E+00 5.06783E+01
 -1       132 2.11535E+01-1.36981E+01 1.23368E+01-1.10924E+00 4.82862E+00 4.35696E+01
 -1       133 5.72473E+01-2.49879E+01 3.15445E+00-2.00469E+00-1.03581E+01 2.87441E+01
 -1       134 2.51900E+01-3.94286E+00-9.71939E+00 3.02076E+01-8.75525E-01 6.34252E-01
 -1       135 9.99450E+01-2.18400E+01-1.67041E+01 3.86988E+00 1.99137E+00 3.47158E+01
 -1       136 8.00887E+01-3.04190E+01-9.98951E+00 1.55690E+01 7.92498E+00 2.36127E+01
 -1       137 1.08986E+01-1.95387E+00-2.82486E+00 2.67025E+01 1.93029E+01 2.11080E+01
 -1       138 6.61172E+00-1.67539E+00-7.22685E+00-1.05241E+01 1.80462E+01 2.36091E+01
 -1       139-3.80943E+01 2.55710E+01-3.09441E+01 8.69489E-01-1.88574E+00 4.70378E+01
 -1       140 8.37480E+01-1.89875E+01-1.58952E+01-1.91421E+00 3.02698E+00 3.83452E+01
 -1       141-3.16019E+01 1.95256E+01-2.29555E+01-1.90684E+01 1.31569E+01 3.11826E+01
 -1       142-1.44507E+01 7.40790E+00-5.03102E+00 7.03688E+00 2.84021E+01 5.23524E+01
 -1       143 4.45034E+01-1.27917E+01-4.08781E+00 3.39755E+00 2.73957E+01 6.91749E+01
 -1       144-1.60425E+01 7.04783E+00-1.18601E+01-4.38521E+00 2.12266E+01 6.30078E+01
 -1       145 1.03142E+01-6.25515E+00 8.27344E+00-2.94806E+01 5.70091E+00-2.47977E+01
 -1       146 9.46902E+01-2.78040E+01-7.96935E+00-1.20863E+01-3.85253E+00-3.13797E+01
 -1       147 1.15593E+02-4.32374E+01 1.23822E+00-1.52063E+00 1.18410E+00-4.25775E+01
 -1       148 5.11006E+01-3.29195E+01 2.47644E+01 5.83325E+00-6.91501E+00-2.81170E+01
 -1       149 7.67548E+00 3.44433E+00-2.19718E+01-5.59299E+00 1.76529E+01-6.01701E+01
 -1       150 9.83748E+00-2.18012E+01 3.89973E+01-3.83252E+00 2.37815E+01-6.09980E+01
 -1       151-4.57773E+01 2.57059E+01-1.53954E+01-1.18643E+01-1.01931E+01-3.22643E+01
 -1       152-3.67489E+01 6.96253E+00 6.22841E+00 2.38448E+01-4.23525E+00-7.54402E+00
 -1       153-7.86662E+01 2.50487E+01 6.01820E+00 1.39883E+01 8.95792E+00-3.90454E+01
 -1       154-9.68014E+01 3.28114E+01-2.48913E-01 1.91920E+00 1.22667E+01-5.54600E+01
 -1       155-1.33210E+01 5.12043E+00-8.13374E+00 2.60608E+01 3.15506E+01-3.57492E+01
 -1       156-8.84973E+00 2.22856E+00 1.68669E-01-8.54033E+00 2.56290E+01-2.88933E+01
 -1       157 7.05813E+01-3.59373E+01 2.05372E+01 1.26665E+00 1.19320E+01-6.77430E+01
 -1       158-5.71419E+01 2.52624E+01-1.14877E+01-6.69186E+00 1.24502E+01-6.97091E+01
 -1       159 2.27242E+01-1.82755E+01 1.39769E+01-2.48981E+01 1.17852E+01-2.98676E+01
 -1       160 2.26397E+01-9.94117E+00 5.58510E+00-2.04298E+00 3.28228E+01-6.37287E+01
 -1       161 4.81727E+01-2.41582E+01 1.57942E+01-9.57095E+00 3.11141E+01-7.85137E+01
 -1       162-2.61878E+01 6.12003E+00 4.13773E+00 2.89126E+00 4.27707E+01-8.08177E+01
 -1       163-4.63752E+00-1.76027E+01 3.11462E+01-3.14582E-01 2.54908E-01-6.35252E+00
 -1       164-3.30919E+00-9.72247E+00 2.02785E+01 8.63658E+00 2.93822E+01-6.22652E+00
 -1       165 2.64403E+00 5.45822E+00-6.89847E+00-7.59912E-01 2.83179E+01-6.47448E+00
 -1       166 3.59943E+00 1.46622E+01-2.79104E+01-6.39350E+00-1.93730E+00-2.91515E+00
 -1       167-6.62338E+00 2.09651E+01-1.24588E+01-5.08695E+00 2.17322E+01 4.69323E+00
 -1       168-1.08024E+01 3.77310E+01-1.19471E+01 2.87658E-01 1.59744E+01-1.75041E+00
 -1       169-1.45697E+01 2.70563E+01 1.08201E+01-1.62889E+00-1.85898E+01-2.91663E+00
 -1       170 1.69103E+01-2.05283E+01-2.02184E+01 1.46840E+00-2.13718E+01 2.11815E+00
 -1       171-7.34825E+00-2.65102E+00 1.16650E+01 5.96787E-01-8.17495E+00-1.06962E+00
 -1       172-1.46660E+00 1.26741E+01-1.93394E+01 1.21012E+00-5.65745E+00 1.04693E+01
 -1       173 1.04936E+01-1.81500E+01-8.15245E+00 2.09506E-01-2.53342E+00-7.03864E+00
 -1       174 2.48957E+00-2.40780E+01 1.08996E+01-9.04536E-01 1.98091E+01-1.51834E+00
 -1       175-3.92602E-01-9.34162E+00 7.40866E+00 5.45216E+00 2.82972E+01 7.46634E+00
 -1       176 4.87007E-01 1.02880E+01-1.88759E+01-7.30858E+00 2.35871E+01-8.27312E+00
 -1       177 1.75487E+00 6.38118E+00-1.11325E+01 1.31074E+00 5.67491E+01-1.05666E+00
 -1       178-1.10044E+01 2.60648E+01-1.70425E-01 8.46717E-01 5.05697E+00-9.28610E+00
 -1       179 2.10783E+00 1.38408E+01-9.64016E+00 7.19834E-01 3.46903E+01 4.17825E+00
 -1       180 6.59972E+00-5.99424E+00-9.32947E+00-2.60789E+00 4.30735E+01 2.06216E-02
 -1       181 8.81745E+00 1.49846E-05 4.32869E-05-6.01347E+01-5.05251E-05-2.48873E+01
 -1       182 1.21466E+01 1.33606E-04-6.89966E-06 7.07895E+00-1.64287E-04-2.48852E+01
 -1       183 4.61971E+00-1.45220E+00 2.13016E+00-4.39523E+01 5.56731E+00-2.46929E+01
 -1       184 1.09958E+01-3.42834E-05-1.58479E-05 6.88757E+01-2.31060E-05-1.90959E+01
 -1       185 7.82798E+00-3.99519E-05 1.64115E-06 7.21084E+01-4.15246E-05-1.34500E+01
 -1       186 8.11553E+00 2.54870E+00-1.53926E+00 8.26901E+01-7.79718E-01 7.30584E+00
 -1       187 8.56160E-01-7.36385E-01-1.38017E+00 7.29432E+01-1.04103E+00 2.37672E+01
 -1       188-6.84318E+00 1.84209E+00 2.08886E+00-6.73115E+01-1.96217E+00 3.04466E+01
 -1       189-6.31010E+00 1.26280E+01-5.66638E+00-3.66159E+01 9.05649E+00 3.73740E+01
 -1       190-1.23934E+01-4.00063E-05 3.07943E-05 2.28982E+01-1.05786E-04 3.24967E+01
 -1       191-3.95117E+00 6.83124E-01-2.65122E-02-6.28836E+01 2.22643E-01 3.25984E+01
 -1       192 7.42575E-01 1.39582E-05 3.40616E-05-6.09395E+01-7.73819E-05-1.12893E+01
 -1       193-2.89989E+00-2.13240E+00-1.25421E+00 5.82341E+01 6.08760E+00-2.42365E+01
 -1       194 1.35429E+01-3.84373E-01 1.86608E-01 5.96497E+01 2.33065E+00 4.45302E+01
 -1       195 8.64124E-01 1.89357E-05 2.23696E-05-6.31875E+01-1.04159E-04 8.61044E+00
 -1       196 2.85949E+00-8.12419E+00 2.60887E+00-3.53346E+01 7.92204E+00 1.38874E+01
 -1       197 4.73189E+00-2.95106E+00 1.39323E-01 1.27320E+01 4.20616E+00-2.17586E+01
 -1       198-1.96272E+00-7.62247E-05-4.06328E-05 2.99436E+01-3.78106E-04 1.50487E+01
 -1       199-6.58243E+01 3.41512E+01 5.10492E+00-8.59301E+00 6.15830E+01-1.86800E+01
 -1       200-1.51427E+01 2.60878E+01-7.79756E+00-5.77852E+00 6.58337E+01 9.73245E-01
 -1       201-2.82907E+01 2.30409E+01 1.98127E+00 3.83293E+00 8.84417E+01-4.73452E+00
 -1       202-3.92486E+00 1.30991E+01-1.52218E+01-7.82851E+00 6.89352E+01-1.51952E+01
 -1       203-7.99274E+00 2.17672E+01-1.17525E+01-2.36001E+00 9.40266E+01-3.45259E+00
 -1       204 2.71138E+01-1.76055E+01-3.64368E+00 3.05656E+00 6.20252E+01-3.31495E+00
 -1       205 2.98333E+01-1.74108E+01 1.03487E+01 4.74795E+00 2.16336E+01-1.31532E+01
 -1       206-3.00905E+00 7.40290E+00-2.06279E+01 9.75972E-01 3.59780E+01 2.39179E+01
 -1       207 3.52831E-01-3.04876E+01 5.40824E+00-2.21799E-01 4.00320E+01 4.36602E+00
 -1       208-2.29406E+00 1.63863E+00-5.68439E+00 2.61946E+00 6.63318E+01 9.79168E+00
 -1       209-4.60547E+00 1.06991E+01-2.73825E+00 1.27535E+01 1.65364E+02 8.32234E-01
 -1       210-1.24658E+01 1.46146E+01 1.87312E+00-3.17517E+00 1.36255E+02 1.00939E+01
 -1       211 1.74630E+01 5.12933E+00-4.42313E+00 5.53772E+00 9.57733E+01 3.21106E+01
 -1       212 2.21416E+00 1.03117E-01-2.78342E+00-1.15687E+00 1.45721E+02 2.35953E+01
 -1       213 2.00091E+01-3.96120E+00-6.79109E+00 1.77458E+01 9.67211E+01 3.98782E+01
 -1       214 1.01107E+01 8.40110E-04-9.88129E+00-4.12177E-01 7.79916E+01 5.16135E+01
 -1       215-3.83931E-01 2.59077E+00-5.00487E+00-2.85141E+00 1.63949E+02-9.37243E+00
 -1       216-1.48547E+01 8.86570E+00 2.77177E+00 1.62007E+01 1.07274E+02-3.91443E+01
 -1       217-1.83815E+00 8.64093E+00-5.98214E+00-6.55787E+00 1.64447E+02-1.97867E+01
 -1       218-3.08872E+01 1.69620E+01 6.76838E-01 2.53254E+00 1.05238E+02-4.28346E+01
 -1       219-9.53428E+00 3.57377E+00 3.23862E+00-6.97789E-01 1.02193E+02-5.82092E+01
 -1       220 5.77506E+00-3.07679E+00-4.05641E+00-1.50637E+01 1.46345E+02-3.46121E+00
 -1       221-1.07308E+01 7.01942E+00-3.25596E+00-3.98827E+00 9.38059E+01 3.95837E+01
 -1       222-3.71271E+01 1.09133E+01-9.14382E+00-4.29025E+00 6.78941E+01 4.24508E+01
 -1       223-3.60746E+01-1.09097E+01 1.81881E+01-5.11767E+01 1.53100E+01 2.72713E+01
 -1       224-5.26156E+01-2.57562E+00 1.14043E+01-3.17837E+01 2.85548E+01 3.60719E+01
 -1       225-2.57068E+01-2.33576E+01 1.45802E+01-1.64919E+01 7.37390E+01 1.41302E+01
 -1       226-6.71179E+01 1.04564E+01 1.96972E+01 1.97988E+00 3.76157E+01 1.65826E+01
 -1       227 4.95297E+01-1.07717E+01-6.52715E+00-4.44116E+01 1.94120E+01-3.44015E+01
 -1       228-1.68167E+01-8.66074E+00 9.68748E+00-3.13578E+01 1.03471E+02 1.67405E+01
 -1       229-2.85832E+00-1.55649E+01 6.23796E+00-3.12654E+01 9.96924E+01 1.14781E+00
 -1       230 3.22915E+01-1.13443E+01-7.41107E+00-1.06024E+01 9.95816E+01-1.60002E+01
 -1       231 1.95871E+01 1.50050E+00-9.57586E+00-4.02596E+01 8.92146E+01-1.32264E+01
 -1       232 4.89188E+00-4.03094E+00-1.17416E+01-6.80050E+00 6.71870E+01 4.43522E+01
 -1       233 6.84867E+01-2.14773E+01-7.98395E+00-1.06221E+01 2.77802E+01-3.20440E+01
 -1       234 4.13672E+01-1.69643E+01 4.79813E+00 5.75626E-01 4.76125E+01-4.63579E+01
 -1       235 4.11705E+01-1.25998E+01-7.02083E-01-1.76088E+01 8.81064E+01-4.99848E+01
 -1       236 1.09363E+01 8.82414E-01 6.28576E+00-7.36364E+00 1.03281E+02-5.80783E+01
 -1       237-3.40093E+00-3.94561E+00 1.19742E+00-1.52656E+00 9.40775E+01 6.02423E+00
 -1       238 1.47671E+01-2.22715E+01-3.23473E+00-3.83496E+00 7.92526E+01 2.07078E+00
 -1       239 2.59212E+01-1.32306E+01-2.06004E+00-3.51633E+01 2.43433E+01-4.17279E+01
 -1       240-4.36677E+00 3.30576E-01-5.87772E-01-7.63938E+00 3.39631E+01-4.02564E+01
 -1       241 1.40814E+01 1.78604E+01-4.35252E+00-6.03710E+00 9.84354E+00 1.82814E+01
 -1       242 1.28122E+01-2.29939E+00-4.73547E+00-1.08686E+00 2.72842E+01 2.59315E+01
 -1       243 9.84099E+00 7.67174E+00-4.87206E+00-1.86749E+00 8.31260E+01 2.79169E+01
 -1       244-1.43063E+01 4.64680E+01-1.52837E+01-2.32619E+00 6.05215E+01-4.54563E+00
 -1       245-3.71649E+00 1.66391E+01-5.90832E+00 4.17096E-01 8.67637E+01 2.06352E+00
 -1       246-1.60353E+01 7.49494E+00 6.16383E+00 6.71655E+01 1.03026E+01-1.38097E+01
 -1       247-6.01603E+00 5.54293E+00 7.50330E-03 5.08023E+01 8.59228E+01-2.93992E+00
 -1       248-1.85761E+00-2.18639E+00 3.89408E-01 4.02192E+01 7.68734E+01-6.65293E+00
 -1       249 1.10768E+01 2.64898E+00-6.57641E+00 6.86526E+01 6.83927E+01 2.18467E+01
 -1       250-2.13049E+01 3.53843E+00 3.37620E+00 5.75343E+01 8.35478E+00-1.96343E+01
 -1       251-6.43722E+00 8.37160E+00-1.34290E+00-7.89611E-01 1.13406E+02-5.55659E-01
 -1       252 6.43824E+00 2.82384E+00-4.78139E+00-2.78590E+00 1.23521E+02-1.41063E+01
 -1       253 1.66696E+01-7.75066E+00 2.11486E+00-1.06332E+01 9.17498E+01-3.79013E+01
 -1       254 4.47460E+00 3.17474E+00-5.84543E+00-4.01093E+01 9.20285E+01-3.00027E+00
 -1       255 4.48852E+01 1.42919E+01-1.85910E+01 2.82254E+01 2.90865E+01 3.53152E+01
 -1       256-4.79412E+01 1.33870E+01 6.44296E+00 1.01082E+01 4.37935E+01-4.19661E+01
 -1       257 3.08308E-01-6.58862E+00 2.16083E+00 4.10378E+00 8.80386E+01 2.98360E+01
 -1       258 5.04313E+00-1.79687E+00-1.23073E+00-1.50673E+01 8.57648E+01-9.40642E+00
 -1       259-1.81905E+01 2.82899E+00 7.64447E+00 3.68274E+01 3.25912E+01-4.16430E+01
 -1       260 3.50150E+01-1.10960E+01-6.69071E+00 6.46162E+01 1.36877E+01 4.23087E+01
 -1       261 1.67358E+01 2.25273E+01-1.69920E+01 3.52632E+01 9.15385E+01 1.13607E+01
 -1       262-3.81742E+01 1.26977E+01 3.34957E+00 4.25455E+01 2.88950E+01-4.13897E+01
 -1       263-8.55324E+00 7.09544E+00 4.70866E-01-3.33554E+00 1.02157E+02-4.54944E+01
 -1       264 6.81428E+00-3.20607E+00 8.05160E+00 3.50077E+00 6.52523E+01-3.62852E+01
 -1       265-2.60429E+01-7.49743E+00 1.82450E+01-4.71135E+01 3.46908E+01 3.47168E+01
 -1       266 9.81910E-01-3.02784E+00-1.33692E+00-5.19892E+01 2.77884E+01 1.47353E+01
 -1       267-2.26858E+01 1.36439E+01 1.56966E+00-9.25823E+00 3.53047E+01 4.96724E+01
 -1       268 1.16529E+01 8.38073E-01-2.37717E+00 1.08543E+01 2.61303E+01 4.66276E+01
 -1       269 4.82979E+01 1.04018E+01-2.31083E+01 4.26575E-01 5.42119E+01 6.05396E+00
 -1       270 1.52549E+01-1.88364E+00-1.04407E+01-6.13942E+01 1.74872E+01-1.62355E+01
 -1       271-1.79309E+01 1.30170E+01 3.14312E+00 2.10403E+01 1.04395E+02-3.33434E+00
 -1       272 2.04117E+01-2.69052E+00-6.68070E+00-5.58085E+01 8.72816E+00-2.36353E+01
 -1       273 7.28581E+00 4.33914E+01-2.20341E+01 1.62767E+01 8.02383E+01 3.30007E+00
 -3
 9999
