    1C
    1UUSER                                                              
    1UDATE              15.july.2016                                    
    1UTIME              11:47:46                                        
    1UHOST                                                              
    1UPGM               CalculiX                                        
    1UDIR                                                               
    1UDBN                                                               
    1UMAT    1MECHANICALMATERIAL                                        
    2C                           273                                     1
 -1         1 1.00000E+01 1.00000E+01 0.00000E+00
 -1         2 1.00000E+01 1.00000E+01 1.00000E+01
 -1         3 1.00000E+01 0.00000E+00 0.00000E+00
 -1         4 1.00000E+01 0.00000E+00 1.00000E+01
 -1         5 0.00000E+00 1.00000E+01 0.00000E+00
 -1         6 0.00000E+00 1.00000E+01 1.00000E+01
 -1         7 0.00000E+00 0.00000E+00 0.00000E+00
 -1         8 0.00000E+00 0.00000E+00 1.00000E+01
 -1         9 0.00000E+00 3.27000E+00 1.00000E+01
 -1        10 0.00000E+00 6.55000E+00 1.00000E+01
 -1        11 3.27000E+00 1.00000E+01 1.00000E+01
 -1        12 6.75000E+00 1.00000E+01 1.00000E+01
 -1        13 1.00000E+01 3.52000E+00 1.00000E+01
 -1        14 1.00000E+01 6.64000E+00 1.00000E+01
 -1        15 3.30000E+00 0.00000E+00 1.00000E+01
 -1        16 6.81000E+00 0.00000E+00 1.00000E+01
 -1        17 0.00000E+00 3.31000E+00 0.00000E+00
 -1        18 0.00000E+00 6.46000E+00 0.00000E+00
 -1        19 3.27000E+00 1.00000E+01 0.00000E+00
 -1        20 6.75000E+00 1.00000E+01 0.00000E+00
 -1        21 1.00000E+01 3.40000E+00 0.00000E+00
 -1        22 1.00000E+01 6.57000E+00 0.00000E+00
 -1        23 3.27000E+00 0.00000E+00 0.00000E+00
 -1        24 6.75000E+00 0.00000E+00 0.00000E+00
 -1        25 1.00000E+01 1.00000E+01 3.46000E+00
 -1        26 1.00000E+01 1.00000E+01 6.78000E+00
 -1        27 0.00000E+00 1.00000E+01 3.25000E+00
 -1        28 0.00000E+00 1.00000E+01 6.75000E+00
 -1        29 1.00000E+01 0.00000E+00 3.31000E+00
 -1        30 1.00000E+01 0.00000E+00 6.91000E+00
 -1        31 0.00000E+00 0.00000E+00 3.20000E+00
 -1        32 0.00000E+00 0.00000E+00 6.70000E+00
 -1        33 2.67001E+00 3.50270E+00 1.00000E+01
 -1        34 4.73661E+00 6.70869E+00 1.00000E+01
 -1        35 6.30929E+00 3.61183E+00 1.00000E+01
 -1        36 2.64481E+00 3.47206E+00 0.00000E+00
 -1        37 4.74991E+00 6.67979E+00 0.00000E+00
 -1        38 6.26878E+00 3.44519E+00 0.00000E+00
 -1        39 5.15902E+00 1.00000E+01 3.03611E+00
 -1        40 7.08166E+00 1.00000E+01 5.86540E+00
 -1        41 3.71315E+00 1.00000E+01 6.37295E+00
 -1        42 3.38806E+00 0.00000E+00 2.59218E+00
 -1        43 6.87299E+00 0.00000E+00 4.78479E+00
 -1        44 3.45473E+00 0.00000E+00 6.30213E+00
 -1        45 1.00000E+01 3.63795E+00 3.67039E+00
 -1        46 1.00000E+01 4.12680E+00 7.10096E+00
 -1        47 1.00000E+01 6.89769E+00 5.12838E+00
 -1        48 0.00000E+00 3.55716E+00 3.65292E+00
 -1        49 0.00000E+00 3.49668E+00 7.32388E+00
 -1        50 0.00000E+00 6.74274E+00 5.16767E+00
 -1        51 7.17864E+00 6.90565E+00 3.53884E+00
 -1        52 7.15583E+00 4.66632E+00 6.92229E+00
 -1        53 5.58026E+00 3.50663E+00 3.69601E+00
 -1        54 3.25234E+00 4.96795E+00 5.57304E+00
 -1        55 0.00000E+00 1.63500E+00 1.00000E+01
 -1        56 0.00000E+00 4.91000E+00 1.00000E+01
 -1        57 0.00000E+00 8.27500E+00 1.00000E+01
 -1        58 1.63500E+00 1.00000E+01 1.00000E+01
 -1        59 5.01000E+00 1.00000E+01 1.00000E+01
 -1        60 8.37500E+00 1.00000E+01 1.00000E+01
 -1        61 1.00000E+01 1.76000E+00 1.00000E+01
 -1        62 1.00000E+01 5.08000E+00 1.00000E+01
 -1        63 1.00000E+01 8.32000E+00 1.00000E+01
 -1        64 1.65000E+00 0.00000E+00 1.00000E+01
 -1        65 5.05500E+00 0.00000E+00 1.00000E+01
 -1        66 8.40500E+00 0.00000E+00 1.00000E+01
 -1        67 0.00000E+00 1.65500E+00 0.00000E+00
 -1        68 0.00000E+00 4.88500E+00 0.00000E+00
 -1        69 0.00000E+00 8.23000E+00 0.00000E+00
 -1        70 1.63500E+00 1.00000E+01 0.00000E+00
 -1        71 5.01000E+00 1.00000E+01 0.00000E+00
 -1        72 8.37500E+00 1.00000E+01 0.00000E+00
 -1        73 1.00000E+01 1.70000E+00 0.00000E+00
 -1        74 1.00000E+01 4.98500E+00 0.00000E+00
 -1        75 1.00000E+01 8.28500E+00 0.00000E+00
 -1        76 1.63500E+00 0.00000E+00 0.00000E+00
 -1        77 5.01000E+00 0.00000E+00 0.00000E+00
 -1        78 8.37500E+00 0.00000E+00 0.00000E+00
 -1        79 1.00000E+01 1.00000E+01 1.73000E+00
 -1        80 1.00000E+01 1.00000E+01 5.12000E+00
 -1        81 1.00000E+01 1.00000E+01 8.39000E+00
 -1        82 0.00000E+00 1.00000E+01 1.62500E+00
 -1        83 0.00000E+00 1.00000E+01 5.00000E+00
 -1        84 0.00000E+00 1.00000E+01 8.37500E+00
 -1        85 1.00000E+01 0.00000E+00 1.65500E+00
 -1        86 1.00000E+01 0.00000E+00 5.11000E+00
 -1        87 1.00000E+01 0.00000E+00 8.45500E+00
 -1        88 0.00000E+00 0.00000E+00 1.60000E+00
 -1        89 0.00000E+00 0.00000E+00 4.95000E+00
 -1        90 0.00000E+00 0.00000E+00 8.35000E+00
 -1        91 1.33500E+00 1.75135E+00 1.00000E+01
 -1        92 2.98500E+00 1.75135E+00 1.00000E+01
 -1        93 1.33500E+00 3.38635E+00 1.00000E+01
 -1        94 1.33500E+00 5.02635E+00 1.00000E+01
 -1        95 1.63500E+00 8.27500E+00 1.00000E+01
 -1        96 4.00331E+00 8.35435E+00 1.00000E+01
 -1        97 5.74331E+00 8.35435E+00 1.00000E+01
 -1        98 8.37500E+00 8.32000E+00 1.00000E+01
 -1        99 8.40500E+00 1.76000E+00 1.00000E+01
 -1       100 8.15464E+00 5.12591E+00 1.00000E+01
 -1       101 8.15464E+00 3.56591E+00 1.00000E+01
 -1       102 6.55964E+00 1.80591E+00 1.00000E+01
 -1       103 4.80464E+00 1.80591E+00 1.00000E+01
 -1       104 2.36831E+00 6.62935E+00 1.00000E+01
 -1       105 7.36831E+00 6.67435E+00 1.00000E+01
 -1       106 4.48965E+00 3.55726E+00 1.00000E+01
 -1       107 5.52295E+00 5.16026E+00 1.00000E+01
 -1       108 3.70331E+00 5.10570E+00 1.00000E+01
 -1       109 1.32240E+00 1.73603E+00 0.00000E+00
 -1       110 1.32240E+00 3.39103E+00 0.00000E+00
 -1       111 1.32240E+00 4.96603E+00 0.00000E+00
 -1       112 1.63500E+00 8.23000E+00 0.00000E+00
 -1       113 5.74996E+00 8.33990E+00 0.00000E+00
 -1       114 4.00996E+00 8.33990E+00 0.00000E+00
 -1       115 8.37500E+00 8.28500E+00 0.00000E+00
 -1       116 8.37500E+00 1.70000E+00 0.00000E+00
 -1       117 8.13439E+00 3.42259E+00 0.00000E+00
 -1       118 8.13439E+00 5.00759E+00 0.00000E+00
 -1       119 6.50939E+00 1.72259E+00 0.00000E+00
 -1       120 4.76939E+00 1.72259E+00 0.00000E+00
 -1       121 2.95740E+00 1.73603E+00 0.00000E+00
 -1       122 2.37496E+00 6.56990E+00 0.00000E+00
 -1       123 7.37496E+00 6.62490E+00 0.00000E+00
 -1       124 4.45679E+00 3.45862E+00 0.00000E+00
 -1       125 3.69736E+00 5.07592E+00 0.00000E+00
 -1       126 5.50935E+00 5.06249E+00 0.00000E+00
 -1       127 1.63500E+00 1.00000E+01 1.62500E+00
 -1       128 4.21451E+00 1.00000E+01 1.51806E+00
 -1       129 5.95451E+00 1.00000E+01 1.51806E+00
 -1       130 8.37500E+00 1.00000E+01 1.73000E+00
 -1       131 8.54083E+00 1.00000E+01 4.66270E+00
 -1       132 8.54083E+00 1.00000E+01 6.32270E+00
 -1       133 8.37500E+00 1.00000E+01 8.39000E+00
 -1       134 1.63500E+00 1.00000E+01 8.37500E+00
 -1       135 5.23158E+00 1.00000E+01 8.18647E+00
 -1       136 3.49158E+00 1.00000E+01 8.18647E+00
 -1       137 1.85658E+00 1.00000E+01 6.56147E+00
 -1       138 1.85658E+00 1.00000E+01 4.81147E+00
 -1       139 7.57951E+00 1.00000E+01 3.24806E+00
 -1       140 6.91583E+00 1.00000E+01 7.93270E+00
 -1       141 2.57951E+00 1.00000E+01 3.14306E+00
 -1       142 4.43609E+00 1.00000E+01 4.70453E+00
 -1       143 5.39741E+00 1.00000E+01 6.11917E+00
 -1       144 6.12034E+00 1.00000E+01 4.45076E+00
 -1       145 1.69403E+00 0.00000E+00 1.29609E+00
 -1       146 3.32903E+00 0.00000E+00 1.29609E+00
 -1       147 5.06903E+00 0.00000E+00 1.29609E+00
 -1       148 8.37500E+00 0.00000E+00 1.65500E+00
 -1       149 8.43650E+00 0.00000E+00 5.84740E+00
 -1       150 8.43650E+00 0.00000E+00 4.04740E+00
 -1       151 8.40500E+00 0.00000E+00 8.45500E+00
 -1       152 1.65000E+00 0.00000E+00 8.35000E+00
 -1       153 3.37737E+00 0.00000E+00 8.15106E+00
 -1       154 5.13237E+00 0.00000E+00 8.15106E+00
 -1       155 1.72737E+00 0.00000E+00 6.50106E+00
 -1       156 1.72737E+00 0.00000E+00 4.75106E+00
 -1       157 6.81150E+00 0.00000E+00 2.39240E+00
 -1       158 6.84150E+00 0.00000E+00 7.39240E+00
 -1       159 1.69403E+00 0.00000E+00 2.89609E+00
 -1       160 3.42140E+00 0.00000E+00 4.44716E+00
 -1       161 5.13053E+00 0.00000E+00 3.68849E+00
 -1       162 5.16386E+00 0.00000E+00 5.54346E+00
 -1       163 1.00000E+01 1.70000E+00 1.65500E+00
 -1       164 1.00000E+01 1.81897E+00 3.49020E+00
 -1       165 1.00000E+01 1.81897E+00 5.29020E+00
 -1       166 1.00000E+01 1.76000E+00 8.45500E+00
 -1       167 1.00000E+01 3.82340E+00 8.55048E+00
 -1       168 1.00000E+01 5.38340E+00 8.55048E+00
 -1       169 1.00000E+01 8.32000E+00 8.39000E+00
 -1       170 1.00000E+01 8.28500E+00 1.73000E+00
 -1       171 1.00000E+01 8.44885E+00 5.95419E+00
 -1       172 1.00000E+01 8.44885E+00 4.29419E+00
 -1       173 1.00000E+01 6.73385E+00 2.56419E+00
 -1       174 1.00000E+01 5.10397E+00 1.83520E+00
 -1       175 1.00000E+01 3.51897E+00 1.83520E+00
 -1       176 1.00000E+01 2.06340E+00 7.00548E+00
 -1       177 1.00000E+01 3.88237E+00 5.38568E+00
 -1       178 1.00000E+01 6.76885E+00 7.56419E+00
 -1       179 1.00000E+01 5.51225E+00 6.11467E+00
 -1       180 1.00000E+01 5.26782E+00 4.39939E+00
 -1       181 0.00000E+00 1.65500E+00 1.60000E+00
 -1       182 0.00000E+00 1.77858E+00 5.17646E+00
 -1       183 0.00000E+00 1.77858E+00 3.42646E+00
 -1       184 0.00000E+00 1.74834E+00 8.66194E+00
 -1       185 0.00000E+00 3.38334E+00 8.66194E+00
 -1       186 0.00000E+00 5.02334E+00 8.66194E+00
 -1       187 0.00000E+00 8.27500E+00 8.37500E+00
 -1       188 0.00000E+00 8.23000E+00 1.62500E+00
 -1       189 0.00000E+00 8.37137E+00 4.20883E+00
 -1       190 0.00000E+00 8.37137E+00 5.95883E+00
 -1       191 0.00000E+00 6.60137E+00 2.58383E+00
 -1       192 0.00000E+00 3.43358E+00 1.82646E+00
 -1       193 0.00000E+00 1.74834E+00 7.01194E+00
 -1       194 0.00000E+00 6.64637E+00 7.58383E+00
 -1       195 0.00000E+00 5.00858E+00 1.82646E+00
 -1       196 0.00000E+00 5.14995E+00 4.41029E+00
 -1       197 0.00000E+00 3.52692E+00 5.48840E+00
 -1       198 0.00000E+00 5.11971E+00 6.24577E+00
 -1       199 6.98291E+00 2.33316E+00 8.46115E+00
 -1       200 8.57791E+00 4.09316E+00 8.46115E+00
 -1       201 6.73256E+00 4.13907E+00 8.46115E+00
 -1       202 8.57791E+00 2.33316E+00 6.91615E+00
 -1       203 8.57791E+00 4.39656E+00 7.01163E+00
 -1       204 8.13439E+00 3.54157E+00 1.83520E+00
 -1       205 8.13439E+00 1.72259E+00 1.65500E+00
 -1       206 8.58932E+00 8.45283E+00 3.49942E+00
 -1       207 8.58932E+00 6.73783E+00 1.76942E+00
 -1       208 8.58932E+00 6.90167E+00 4.33361E+00
 -1       209 5.20408E+00 4.81713E+00 6.24767E+00
 -1       210 7.16723E+00 5.78599E+00 5.23056E+00
 -1       211 5.43449E+00 7.33316E+00 6.64762E+00
 -1       212 5.21549E+00 5.93680E+00 4.55594E+00
 -1       213 3.48275E+00 7.48397E+00 5.97299E+00
 -1       214 5.44590E+00 8.45283E+00 4.95589E+00
 -1       215 4.41630E+00 4.23729E+00 4.63453E+00
 -1       216 3.35354E+00 2.48397E+00 5.93758E+00
 -1       217 6.36804E+00 4.08648E+00 5.30915E+00
 -1       218 5.30528E+00 2.33316E+00 6.61221E+00
 -1       219 4.51750E+00 1.75332E+00 4.99907E+00
 -1       220 6.37945E+00 5.20614E+00 3.61742E+00
 -1       221 4.20568E+00 7.48397E+00 4.30458E+00
 -1       222 6.16883E+00 8.45283E+00 3.28748E+00
 -1       223 2.37496E+00 8.33990E+00 1.62500E+00
 -1       224 4.95447E+00 8.33990E+00 1.51806E+00
 -1       225 5.96428E+00 6.79272E+00 1.76942E+00
 -1       226 6.96432E+00 8.45283E+00 1.76942E+00
 -1       227 3.01643E+00 1.73603E+00 1.29609E+00
 -1       228 4.00113E+00 5.82387E+00 2.78652E+00
 -1       229 5.16509E+00 5.09321E+00 1.84801E+00
 -1       230 5.92452E+00 3.47591E+00 1.84801E+00
 -1       231 4.11254E+00 3.48934E+00 1.84801E+00
 -1       232 7.13015E+00 8.45283E+00 4.70212E+00
 -1       233 4.82842E+00 1.72259E+00 1.29609E+00
 -1       234 6.57088E+00 1.72259E+00 2.39240E+00
 -1       235 4.48416E+00 1.75332E+00 3.14410E+00
 -1       236 6.22663E+00 1.75332E+00 4.24040E+00
 -1       237 8.58932E+00 5.27180E+00 3.60462E+00
 -1       238 6.72371E+00 5.17542E+00 1.76942E+00
 -1       239 1.69403E+00 1.77858E+00 3.12255E+00
 -1       240 1.72737E+00 1.77858E+00 4.97753E+00
 -1       241 8.54083E+00 8.32000E+00 7.93270E+00
 -1       242 8.54083E+00 8.44885E+00 5.49689E+00
 -1       243 7.11874E+00 7.33316E+00 6.39384E+00
 -1       244 8.57791E+00 5.65316E+00 8.46115E+00
 -1       245 8.57791E+00 5.78201E+00 6.02534E+00
 -1       246 1.33500E+00 3.49969E+00 8.66194E+00
 -1       247 2.96117E+00 4.23532E+00 7.78652E+00
 -1       248 1.62617E+00 4.23231E+00 6.44846E+00
 -1       249 1.62617E+00 5.75897E+00 7.78652E+00
 -1       250 1.33500E+00 1.75135E+00 8.35000E+00
 -1       251 8.57791E+00 4.15213E+00 5.29634E+00
 -1       252 7.79013E+00 3.57229E+00 3.68320E+00
 -1       253 3.32020E+00 2.48397E+00 4.08261E+00
 -1       254 2.94857E+00 4.22000E+00 2.78652E+00
 -1       255 4.22488E+00 8.35435E+00 8.18647E+00
 -1       256 4.88201E+00 1.80591E+00 8.15106E+00
 -1       257 1.62617E+00 5.85534E+00 5.37035E+00
 -1       258 1.62617E+00 4.26256E+00 4.61298E+00
 -1       259 1.72737E+00 1.74834E+00 6.81301E+00
 -1       260 1.85658E+00 8.27500E+00 8.18647E+00
 -1       261 3.99448E+00 5.83832E+00 7.78652E+00
 -1       262 3.06237E+00 1.75135E+00 8.15106E+00
 -1       263 7.01441E+00 2.33316E+00 5.85354E+00
 -1       264 8.43650E+00 1.81897E+00 4.22759E+00
 -1       265 2.37496E+00 6.71126E+00 2.58383E+00
 -1       266 1.32240E+00 5.10740E+00 2.58383E+00
 -1       267 2.57951E+00 8.37137E+00 4.10189E+00
 -1       268 1.85658E+00 8.37137E+00 5.77031E+00
 -1       269 6.95291E+00 7.33316E+00 8.46115E+00
 -1       270 1.32240E+00 3.51461E+00 1.82646E+00
 -1       271 4.78081E+00 4.28989E+00 7.78652E+00
 -1       272 1.32240E+00 1.73603E+00 1.60000E+00
 -1       273 5.94622E+00 5.68751E+00 8.46115E+00
 -3
    3C                           118                                     1
 -1       133    6    0    1
 -2        52        16        13        35       199        99       200       201       102       101
 -1       134    6    0    1
 -2        30        52        13        46       202       200       166       176       203       167
 -1       135    6    0    1
 -2        45        38        21        29       204       117       175       164       205       163
 -1       136    6    0    1
 -2        22        25        51        47       170       206       207       173       172       208
 -1       137    6    0    1
 -2        54        52        51        41       209       210       212       213       211       214
 -1       138    6    0    1
 -2        52        54        53        44       209       215       217       218       216       219
 -1       139    6    0    1
 -2        52        54        51        53       209       212       210       217       215       220
 -1       140    6    0    1
 -2        39        54        51        41       221       212       222       142       213       214
 -1       141    6    0    1
 -2        39        27        19        37       141       127       128       224       223       114
 -1       142    6    0    1
 -2        39        37        20        51       224       113       129       222       225       226
 -1       143    6    0    1
 -2        23        42        36         7       146       227       121        76       145       109
 -1       144    6    0    1
 -2        37        51        54        53       225       212       228       229       220       215
 -1       145    6    0    1
 -2        27         5        19        18        82        70       127       188        69       112
 -1       146    6    0    1
 -2        22        25        20        51       170       130       115       207       206       226
 -1       147    6    0    1
 -2        38        53        37        36       230       229       126       124       231       125
 -1       148    6    0    1
 -2        39        41        51        40       142       214       222       144       143       232
 -1       149    6    0    1
 -2        42        38        53        43       233       230       235       161       234       236
 -1       150    6    0    1
 -2        45        22        38        51       174       118       204       237       207       238
 -1       151    6    0    1
 -2        31        42        48        44       159       239       183       156       160       240
 -1       152    6    0    1
 -2        32        44        31        48       155       156        89       182       240       183
 -1       153    6    0    1
 -2        38        36        42        53       124       227       233       230       231       235
 -1       154    6    0    1
 -2        16        13        30        52        99       166       151       199       200       202
 -1       155    6    0    1
 -2        14        40        47        52       241       242       178       244       243       245
 -1       156    6    0    1
 -2        38        22        37        51       118       123       126       238       207       225
 -1       157    6    0    1
 -2        49        33        54        10       246       247       248       186        94       249
 -1       158    6    0    1
 -2        33        32        15         8       250       152        92        91        90        64
 -1       159    6    0    1
 -2        52        45        53        51       251       252       217       210       237       220
 -1       160    6    0    1
 -2        53        42        54        36       235       253       215       231       227       254
 -1       161    6    0    1
 -2        34        12        41        11        97       135       255        96        59       136
 -1       162    6    0    1
 -2        44        16        35        15       154       102       256       153        65       103
 -1       163    6    0    1
 -2        50        54        10        49       257       249       194       198       248       186
 -1       164    6    0    1
 -2        49        48        54        44       197       258       248       259       240       216
 -1       165    6    0    1
 -2        33        32         8        49       250        90        91       246       193       184
 -1       166    6    0    1
 -2        54        48        49        50       258       197       248       257       196       198
 -1       167    6    0    1
 -2        41        10        54        34       260       249       213       255       104       261
 -1       168    6    0    1
 -2        39        20        25        51       129       130       139       222       226       206
 -1       169    6    0    1
 -2        33        32        49        44       250       193       246       262       155       259
 -1       170    6    0    1
 -2        41        10        34        11       260       104       255       136        95        96
 -1       171    6    0    1
 -2        43        52        30        45       263       202       149       264       251       165
 -1       172    6    0    1
 -2        53        38        37        51       230       126       229       220       238       225
 -1       173    6    0    1
 -2        50        18        37        36       191       122       265       266       111       125
 -1       174    6    0    1
 -2        45        38        53        51       204       230       252       237       238       220
 -1       175    6    0    1
 -2        50        39        41        54       267       142       268       257       221       213
 -1       176    6    0    1
 -2        14        40        52        12       241       243       244        98       140       269
 -1       177    6    0    1
 -2        41        10        11        28       260        95       136       137       187       134
 -1       178    6    0    1
 -2        24        21        29         3       116       163       148        78        73        85
 -1       179    6    0    1
 -2        11        28        10         6       134       187        95        58        84        57
 -1       180    6    0    1
 -2        16        30        13         4       151       166        99        66        87        61
 -1       181    6    0    1
 -2        45        52        30        46       251       202       165       177       203       176
 -1       182    6    0    1
 -2        54        42        53        44       253       235       215       216       160       219
 -1       183    6    0    1
 -2        36        48        54        50       270       258       254       266       196       257
 -1       184    6    0    1
 -2        52        43        53        45       263       236       217       251       264       252
 -1       185    6    0    1
 -2        16        44        35        52       154       256       102       199       218       201
 -1       186    6    0    1
 -2        38        45        43        29       204       264       234       205       164       150
 -1       187    6    0    1
 -2        54        42        48        36       253       239       258       254       227       270
 -1       188    6    0    1
 -2        45        22        21        38       174        74       175       204       118       117
 -1       189    6    0    1
 -2        43        45        30        29       264       165       149       150       164        86
 -1       190    6    0    1
 -2        24        29        21        38       148       163       116       119       205       117
 -1       191    6    0    1
 -2        43        38        53        45       234       230       236       264       204       252
 -1       192    6    0    1
 -2        33        35        54        34       106       271       247       108       107       261
 -1       193    6    0    1
 -2        54        35        33        44       271       106       247       216       256       262
 -1       194    6    0    1
 -2        42        38        43        24       233       234       161       147       119       157
 -1       195    6    0    1
 -2        44        16        43        52       154       158       162       218       199       263
 -1       196    6    0    1
 -2        51        40        47        25       232       242       208       206       131       172
 -1       197    6    0    1
 -2        52        12        40        41       269       140       243       211       135       143
 -1       198    6    0    1
 -2        48        42        54        44       239       253       258       240       160       216
 -1       199    6    0    1
 -2        52        47        45        51       245       180       251       210       208       237
 -1       200    6    0    1
 -2        50        37        18        27       265       122       191       189       223       188
 -1       201    6    0    1
 -2        15        33        35        44        92       106       103       153       262       256
 -1       202    6    0    1
 -2        43        38        29        24       234       205       150       157       119       148
 -1       203    6    0    1
 -2        14        52        13        35       244       200        62       100       201       101
 -1       204    6    0    1
 -2        52        45        47        46       251       180       245       203       177       179
 -1       205    6    0    1
 -2        38        42        36        23       233       227       124       120       146       121
 -1       206    6    0    1
 -2        22        45        47        51       174       180       173       207       237       208
 -1       207    6    0    1
 -2        44        43        53        52       162       236       219       218       263       217
 -1       208    6    0    1
 -2        22        20        25         1       115       130       170        75        72        79
 -1       209    6    0    1
 -2        41        52        51        40       211       210       214       143       243       232
 -1       210    6    0    1
 -2        52        14        13        46       244        62       200       203       168       167
 -1       211    6    0    1
 -2        28        50        27        41       190       189        83       137       268       138
 -1       212    6    0    1
 -2        43        16        30        52       158       151       149       263       199       202
 -1       213    6    0    1
 -2        47        52        40        51       245       243       242       208       210       232
 -1       214    6    0    1
 -2        44        49        48        32       259       197       240       155       193       182
 -1       215    6    0    1
 -2        49        33        10         9       246        94       186       185        93        56
 -1       216    6    0    1
 -2        42        31        36         7       159       272       227       145        88       109
 -1       217    6    0    1
 -2        23        38        42        24       120       233       146        77       119       147
 -1       218    6    0    1
 -2        50        41        10        54       268       260       194       257       213       249
 -1       219    6    0    1
 -2        25        26        40        47        80       132       131       172       171       242
 -1       220    6    0    1
 -2        48        17        18        36       192        68       195       270       110       111
 -1       221    6    0    1
 -2        51        40        25        39       232       131       206       222       144       139
 -1       222    6    0    1
 -2        54        35        52        34       271       201       209       261       107       273
 -1       223    6    0    1
 -2        48        42        31        36       239       159       183       270       227       272
 -1       224    6    0    1
 -2        39        37        19        20       224       114       128       129       113        71
 -1       225    6    0    1
 -2        52        35        54        44       201       271       209       218       256       216
 -1       226    6    0    1
 -2        31        17        36         7       181       110       272        88        67       109
 -1       227    6    0    1
 -2        37        51        39        54       225       222       224       228       212       221
 -1       228    6    0    1
 -2        37        27        19        18       223       127       114       122       188       112
 -1       229    6    0    1
 -2        50        37        27        39       265       223       189       267       224       141
 -1       230    6    0    1
 -2        50        37        54        36       265       228       257       266       125       254
 -1       231    6    0    1
 -2        37        22        20        51       123       115       113       225       207       226
 -1       232    6    0    1
 -2        54        37        50        39       228       265       257       221       224       267
 -1       233    6    0    1
 -2        54        37        53        36       228       229       215       254       125       231
 -1       234    6    0    1
 -2        33        49         8         9       246       184        91        93       185        55
 -1       235    6    0    1
 -2        50        48        18        36       196       195       191       266       270       111
 -1       236    6    0    1
 -2        14        40        12        26       241       140        98       169       132       133
 -1       237    6    0    1
 -2        49        33        44        54       246       262       259       248       247       216
 -1       238    6    0    1
 -2        26        12        14         2       133        98       169        81        60        63
 -1       239    6    0    1
 -2        12        34        52        14        97       273       269        98       105       244
 -1       240    6    0    1
 -2        50        39        27        41       267       141       189       268       142       138
 -1       241    6    0    1
 -2        17        48        31        36       192       183       181       110       270       272
 -1       242    6    0    1
 -2        50        10        41        28       194       260       268       190       187       137
 -1       243    6    0    1
 -2        34        54        33        10       261       247       108       104       249        94
 -1       244    6    0    1
 -2        12        34        41        52        97       255       135       269       273       211
 -1       245    6    0    1
 -2        44        43        42        53       162       161       160       219       236       235
 -1       246    6    0    1
 -2        14        40        26        47       241       132       169       178       242       171
 -1       247    6    0    1
 -2        34        54        41        52       261       213       255       273       209       211
 -1       248    6    0    1
 -2        52        34        35        14       273       107       201       244       105       100
 -1       249    6    0    1
 -2        52        14        46        47       244       168       203       245       178       179
 -1       250    6    0    1
 -2        33        32        44        15       250       155       262        92       152       153
 -3
    1PSTEP                         1           1           1          
  100CL  101 1.000000000         273                     0    1           1
 -4  DISP        4    1
 -5  D1          1    2    1    0
 -5  D2          1    2    2    0
 -5  D3          1    2    3    0
 -5  ALL         1    2    0    0    1ALL
 -1         1-6.77042E-02 7.51274E-03-6.42002E-02
 -1         2-2.41010E-02 1.08587E-02-5.91418E-02
 -1         3-6.77878E-02-7.85526E-03-6.41623E-02
 -1         4-2.42498E-02-1.11691E-02-5.90823E-02
 -1         5 0.00000E+00 0.00000E+00 0.00000E+00
 -1         6 0.00000E+00 0.00000E+00 0.00000E+00
 -1         7 0.00000E+00 0.00000E+00 0.00000E+00
 -1         8 0.00000E+00 0.00000E+00 0.00000E+00
 -1         9 0.00000E+00 0.00000E+00 0.00000E+00
 -1        10 0.00000E+00 0.00000E+00 0.00000E+00
 -1        11 3.43427E-04 5.55515E-03-2.04456E-02
 -1        12-1.02661E-02 9.43124E-03-4.20902E-02
 -1        13-2.30940E-02-3.43627E-03-5.88084E-02
 -1        14-2.30043E-02 3.43054E-03-5.88337E-02
 -1        15-2.33246E-04-5.75662E-03-2.02546E-02
 -1        16-1.07420E-02-9.79318E-03-4.25949E-02
 -1        17 0.00000E+00 0.00000E+00 0.00000E+00
 -1        18 0.00000E+00 0.00000E+00 0.00000E+00
 -1        19-3.21558E-02 1.04961E-02-2.37751E-02
 -1        20-5.13992E-02 8.44259E-03-4.70683E-02
 -1        21-6.79662E-02-2.79072E-03-6.36609E-02
 -1        22-6.78487E-02 2.37648E-03-6.37950E-02
 -1        23-3.15912E-02-9.96078E-03-2.44251E-02
 -1        24-5.15022E-02-8.72505E-03-4.70555E-02
 -1        25-5.16788E-02 8.42848E-03-5.92099E-02
 -1        26-3.88567E-02 9.95134E-03-5.75980E-02
 -1        27 0.00000E+00 0.00000E+00 0.00000E+00
 -1        28 0.00000E+00 0.00000E+00 0.00000E+00
 -1        29-5.23584E-02-8.74163E-03-5.93384E-02
 -1        30-3.86750E-02-1.04110E-02-5.76319E-02
 -1        31 0.00000E+00 0.00000E+00 0.00000E+00
 -1        32 0.00000E+00 0.00000E+00 0.00000E+00
 -1        33 2.64334E-03-1.41334E-03-1.69047E-02
 -1        34-1.62298E-03 2.47923E-03-2.96394E-02
 -1        35-6.81238E-03-2.63111E-03-3.92828E-02
 -1        36-2.44576E-02-2.53953E-03-2.16442E-02
 -1        37-3.99824E-02 2.99312E-03-3.53432E-02
 -1        38-4.87355E-02-2.95636E-03-4.41365E-02
 -1        39-2.91162E-02 9.19620E-03-3.22569E-02
 -1        40-2.93593E-02 9.01033E-03-4.25944E-02
 -1        41-1.44957E-02 7.76494E-03-2.06473E-02
 -1        42-2.08542E-02-9.08597E-03-2.09659E-02
 -1        43-3.21376E-02-9.22777E-03-4.18154E-02
 -1        44-1.38527E-02-7.65048E-03-1.87927E-02
 -1        45-5.08139E-02-2.63295E-03-5.85610E-02
 -1        46-3.66902E-02-2.02243E-03-5.73076E-02
 -1        47-4.49408E-02 3.45262E-03-5.74990E-02
 -1        48 0.00000E+00 0.00000E+00 0.00000E+00
 -1        49 0.00000E+00 0.00000E+00 0.00000E+00
 -1        50 0.00000E+00 0.00000E+00 0.00000E+00
 -1        51-3.73119E-02 3.34277E-03-4.44938E-02
 -1        52-2.48333E-02-7.44350E-04-4.26959E-02
 -1        53-2.83069E-02-2.86590E-03-3.46438E-02
 -1        54-1.23275E-02-1.10627E-04-1.81724E-02
 -1        55 0.00000E+00 0.00000E+00 0.00000E+00
 -1        56 0.00000E+00 0.00000E+00 0.00000E+00
 -1        57 0.00000E+00 0.00000E+00 0.00000E+00
 -1        58 1.18238E-03 3.27824E-03-9.94804E-03
 -1        59-4.10425E-03 8.03899E-03-3.13582E-02
 -1        60-1.70371E-02 1.01744E-02-5.09559E-02
 -1        61-2.35528E-02-7.33687E-03-5.88296E-02
 -1        62-2.29223E-02 1.00631E-05-5.88139E-02
 -1        63-2.34316E-02 7.18218E-03-5.88553E-02
 -1        64 7.19685E-04-3.18085E-03-9.59178E-03
 -1        65-4.65920E-03-8.22263E-03-3.15661E-02
 -1        66-1.73410E-02-1.05049E-02-5.11172E-02
 -1        67 0.00000E+00 0.00000E+00 0.00000E+00
 -1        68 0.00000E+00 0.00000E+00 0.00000E+00
 -1        69 0.00000E+00 0.00000E+00 0.00000E+00
 -1        70-1.76522E-02 8.42631E-03-1.38028E-02
 -1        71-4.22275E-02 9.42756E-03-3.60010E-02
 -1        72-5.95935E-02 7.88259E-03-5.59376E-02
 -1        73-6.80056E-02-5.37093E-03-6.38202E-02
 -1        74-6.79379E-02-2.28486E-04-6.36522E-02
 -1        75-6.79561E-02 5.01047E-03-6.38661E-02
 -1        76-1.87501E-02-8.21156E-03-1.37285E-02
 -1        77-4.21262E-02-9.55819E-03-3.60549E-02
 -1        78-5.96946E-02-8.20665E-03-5.59192E-02
 -1        79-5.93029E-02 7.93548E-03-6.16023E-02
 -1        80-4.52904E-02 9.19502E-03-5.78534E-02
 -1        81-3.18288E-02 1.04399E-02-5.83027E-02
 -1        82 0.00000E+00 0.00000E+00 0.00000E+00
 -1        83 0.00000E+00 0.00000E+00 0.00000E+00
 -1        84 0.00000E+00 0.00000E+00 0.00000E+00
 -1        85-5.97235E-02-8.26212E-03-6.16677E-02
 -1        86-4.55885E-02-9.59032E-03-5.78127E-02
 -1        87-3.16781E-02-1.08372E-02-5.83012E-02
 -1        88 0.00000E+00 0.00000E+00 0.00000E+00
 -1        89 0.00000E+00 0.00000E+00 0.00000E+00
 -1        90 0.00000E+00 0.00000E+00 0.00000E+00
 -1        91 1.93322E-03-1.69407E-03-8.21665E-03
 -1        92 1.91374E-03-3.33816E-03-1.87275E-02
 -1        93 2.62581E-03-6.40451E-04-8.83891E-03
 -1        94 2.65378E-03 1.10182E-04-8.65685E-03
 -1        95 2.48822E-03 1.92320E-03-1.01587E-02
 -1        96-2.93974E-05 4.33611E-03-2.51370E-02
 -1        97-5.56195E-03 5.77298E-03-3.59269E-02
 -1        98-1.61958E-02 6.71461E-03-5.07917E-02
 -1        99-1.65079E-02-6.90219E-03-5.09561E-02
 -1       100-1.46112E-02 1.39234E-04-4.93773E-02
 -1       101-1.47687E-02-3.10625E-03-4.94192E-02
 -1       102-8.59710E-03-6.17512E-03-4.08779E-02
 -1       103-2.28590E-03-5.00458E-03-3.00540E-02
 -1       104 1.88712E-03 1.40135E-03-1.49052E-02
 -1       105-1.14062E-02 3.16907E-03-4.51501E-02
 -1       106-1.05607E-03-2.23767E-03-2.80662E-02
 -1       107-3.93188E-03 1.35452E-04-3.44807E-02
 -1       108 1.01443E-03 1.51106E-04-2.31664E-02
 -1       109-1.31055E-02-3.28488E-03-1.20304E-02
 -1       110-1.23135E-02-1.47757E-03-1.21729E-02
 -1       111-1.21644E-02-1.02053E-04-1.18098E-02
 -1       112-1.59590E-02 3.98769E-03-1.41624E-02
 -1       113-4.61935E-02 6.07603E-03-4.10982E-02
 -1       114-3.60094E-02 6.71929E-03-3.00775E-02
 -1       115-5.98782E-02 5.24001E-03-5.57756E-02
 -1       116-5.99179E-02-5.59169E-03-5.56937E-02
 -1       117-5.85268E-02-2.81019E-03-5.43636E-02
 -1       118-5.85290E-02-1.16008E-04-5.44136E-02
 -1       119-5.03689E-02-5.96428E-03-4.55198E-02
 -1       120-4.03537E-02-6.50065E-03-3.48891E-02
 -1       121-2.81238E-02-6.23156E-03-2.32886E-02
 -1       122-2.05036E-02 2.73376E-03-1.86786E-02
 -1       123-5.47400E-02 2.72779E-03-5.02862E-02
 -1       124-3.75753E-02-3.15754E-03-3.32828E-02
 -1       125-3.22818E-02-1.10286E-04-2.85700E-02
 -1       126-4.42949E-02-3.64553E-05-3.97371E-02
 -1       127-1.16444E-02 7.09343E-03-9.95012E-03
 -1       128-2.91109E-02 9.63780E-03-2.79676E-02
 -1       129-3.93064E-02 8.96678E-03-3.97284E-02
 -1       130-5.11010E-02 8.27384E-03-5.34683E-02
 -1       131-4.01259E-02 8.94193E-03-5.13083E-02
 -1       132-3.41058E-02 9.46144E-03-5.06847E-02
 -1       133-2.48790E-02 9.83241E-03-5.02248E-02
 -1       134-4.27660E-03 3.75774E-03-7.73413E-03
 -1       135-1.38655E-02 8.33647E-03-3.14916E-02
 -1       136-9.05925E-03 6.71630E-03-1.99205E-02
 -1       137-6.81608E-03 4.94840E-03-8.86774E-03
 -1       138-8.87600E-03 5.98502E-03-9.39939E-03
 -1       139-4.07001E-02 8.70369E-03-4.72652E-02
 -1       140-2.09520E-02 9.18014E-03-4.18578E-02
 -1       141-1.45164E-02 7.24231E-03-1.45944E-02
 -1       142-2.11115E-02 8.66744E-03-2.59276E-02
 -1       143-2.15497E-02 8.54509E-03-3.19961E-02
 -1       144-2.94548E-02 8.88984E-03-3.72669E-02
 -1       145-1.36159E-02-7.88018E-03-1.06372E-02
 -1       146-2.50074E-02-9.44352E-03-2.24826E-02
 -1       147-3.54783E-02-9.37389E-03-3.43384E-02
 -1       148-5.15107E-02-8.56159E-03-5.35395E-02
 -1       149-3.56897E-02-9.65412E-03-5.02649E-02
 -1       150-4.20978E-02-9.06362E-03-5.11785E-02
 -1       151-2.48033E-02-1.01888E-02-5.03917E-02
 -1       152-4.20160E-03-4.12107E-03-8.22148E-03
 -1       153-9.09069E-03-6.75939E-03-1.90049E-02
 -1       154-1.38761E-02-8.44696E-03-3.07454E-02
 -1       155-6.52706E-03-4.79670E-03-8.20378E-03
 -1       156-8.27314E-03-5.92868E-03-8.46544E-03
 -1       157-4.01648E-02-9.00126E-03-4.37579E-02
 -1       158-2.30947E-02-9.38603E-03-4.12072E-02
 -1       159-9.87166E-03-6.57303E-03-9.27032E-03
 -1       160-1.70501E-02-8.45935E-03-1.93562E-02
 -1       161-2.70105E-02-9.11490E-03-3.14819E-02
 -1       162-2.23785E-02-8.75304E-03-3.05325E-02
 -1       163-5.98988E-02-5.64958E-03-6.13214E-02
 -1       164-5.16545E-02-5.80953E-03-5.88166E-02
 -1       165-4.46066E-02-6.33175E-03-5.74761E-02
 -1       166-3.11861E-02-7.11050E-03-5.80035E-02
 -1       167-3.01943E-02-2.74628E-03-5.79497E-02
 -1       168-3.00702E-02 6.23215E-04-5.79448E-02
 -1       169-3.14161E-02 6.88685E-03-5.79529E-02
 -1       170-5.94051E-02 5.28446E-03-6.12295E-02
 -1       171-4.18057E-02 6.62239E-03-5.73127E-02
 -1       172-4.84282E-02 6.09948E-03-5.81145E-02
 -1       173-5.56985E-02 2.87151E-03-5.99030E-02
 -1       174-5.88771E-02-1.36693E-05-6.09536E-02
 -1       175-5.90311E-02-2.70097E-03-6.09603E-02
 -1       176-3.75217E-02-6.27551E-03-5.73490E-02
 -1       177-4.38792E-02-2.37299E-03-5.73487E-02
 -1       178-3.47543E-02 3.52652E-03-5.74377E-02
 -1       179-4.08075E-02 8.21649E-04-5.72243E-02
 -1       180-4.78052E-02 3.51693E-04-5.79333E-02
 -1       181 0.00000E+00 0.00000E+00 0.00000E+00
 -1       182 0.00000E+00 0.00000E+00 0.00000E+00
 -1       183 0.00000E+00 0.00000E+00 0.00000E+00
 -1       184 0.00000E+00 0.00000E+00 0.00000E+00
 -1       185 0.00000E+00 0.00000E+00 0.00000E+00
 -1       186 0.00000E+00 0.00000E+00 0.00000E+00
 -1       187 0.00000E+00 0.00000E+00 0.00000E+00
 -1       188 0.00000E+00 0.00000E+00 0.00000E+00
 -1       189 0.00000E+00 0.00000E+00 0.00000E+00
 -1       190 0.00000E+00 0.00000E+00 0.00000E+00
 -1       191 0.00000E+00 0.00000E+00 0.00000E+00
 -1       192 0.00000E+00 0.00000E+00 0.00000E+00
 -1       193 0.00000E+00 0.00000E+00 0.00000E+00
 -1       194 0.00000E+00 0.00000E+00 0.00000E+00
 -1       195 0.00000E+00 0.00000E+00 0.00000E+00
 -1       196 0.00000E+00 0.00000E+00 0.00000E+00
 -1       197 0.00000E+00 0.00000E+00 0.00000E+00
 -1       198 0.00000E+00 0.00000E+00 0.00000E+00
 -1       199-1.80868E-02-5.21754E-03-4.23203E-02
 -1       200-2.43044E-02-2.00316E-03-5.09311E-02
 -1       201-1.66114E-02-1.72666E-03-4.08101E-02
 -1       202-3.15431E-02-5.40037E-03-5.05852E-02
 -1       203-3.07269E-02-1.34602E-03-5.05599E-02
 -1       204-4.95016E-02-2.71014E-03-5.17597E-02
 -1       205-5.04395E-02-5.78849E-03-5.20721E-02
 -1       206-4.47468E-02 5.98725E-03-5.22298E-02
 -1       207-5.21086E-02 2.86185E-03-5.42852E-02
 -1       208-4.12796E-02 3.32049E-03-5.14873E-02
 -1       209-1.88452E-02-3.90763E-04-3.07740E-02
 -1       210-3.10332E-02 1.29476E-03-4.31369E-02
 -1       211-1.89345E-02 3.92910E-03-3.22272E-02
 -1       212-2.36884E-02 1.56894E-03-3.14390E-02
 -1       213-1.27478E-02 3.49921E-03-1.95566E-02
 -1       214-2.43093E-02 6.04403E-03-3.26078E-02
 -1       215-1.95293E-02-1.40883E-03-2.62744E-02
 -1       216-1.23530E-02-3.56506E-03-1.85758E-02
 -1       217-2.70365E-02-1.76130E-03-3.83275E-02
 -1       218-1.86972E-02-4.70071E-03-3.14568E-02
 -1       219-1.98669E-02-5.62687E-03-2.66061E-02
 -1       220-3.26365E-02 1.97095E-04-3.96629E-02
 -1       221-1.94670E-02 3.98360E-03-2.49758E-02
 -1       222-3.32190E-02 6.27283E-03-3.86387E-02
 -1       223-1.56684E-02 4.92953E-03-1.58476E-02
 -1       224-3.34080E-02 6.19475E-03-3.35200E-02
 -1       225-3.80564E-02 3.15858E-03-3.96778E-02
 -1       226-4.36971E-02 6.02221E-03-4.54598E-02
 -1       227-2.17860E-02-5.72048E-03-2.09911E-02
 -1       228-2.20835E-02 1.21109E-03-2.52040E-02
 -1       229-3.28213E-02 2.60750E-05-3.44345E-02
 -1       230-3.73524E-02-2.92977E-03-3.90915E-02
 -1       231-2.64704E-02-2.75667E-03-2.75097E-02
 -1       232-3.31257E-02 6.19870E-03-4.32754E-02
 -1       233-3.37697E-02-6.27190E-03-3.30081E-02
 -1       234-3.89039E-02-6.08781E-03-4.22099E-02
 -1       235-2.46051E-02-5.99368E-03-2.79550E-02
 -1       236-3.03497E-02-6.08781E-03-3.82065E-02
 -1       237-4.40905E-02 3.33904E-04-5.20081E-02
 -1       238-4.21520E-02 1.77915E-04-4.40531E-02
 -1       239-8.64901E-03-3.76009E-03-9.36907E-03
 -1       240-6.82659E-03-3.16422E-03-8.79216E-03
 -1       241-2.70588E-02 6.49215E-03-5.06640E-02
 -1       242-3.68807E-02 6.35463E-03-5.06591E-02
 -1       243-2.68526E-02 4.22292E-03-4.25304E-02
 -1       244-2.42921E-02 1.13273E-03-5.09521E-02
 -1       245-3.46802E-02 1.33265E-03-5.05901E-02
 -1       246-1.32651E-03-7.42359E-04-6.75919E-03
 -1       247-6.66360E-03-8.95564E-04-1.64928E-02
 -1       248-4.87074E-03-6.04067E-04-8.11488E-03
 -1       249-3.64955E-03 6.33756E-04-7.95668E-03
 -1       250-2.08114E-03-1.65156E-03-6.58024E-03
 -1       251-3.74850E-02-1.80035E-03-5.08148E-02
 -1       252-3.98580E-02-2.77562E-03-4.77618E-02
 -1       253-1.54782E-02-3.89421E-03-1.93161E-02
 -1       254-1.59845E-02-1.19985E-03-1.83297E-02
 -1       255-9.59102E-03 5.00623E-03-2.48715E-02
 -1       256-1.19731E-02-5.30550E-03-2.92048E-02
 -1       257-5.95831E-03 6.56614E-04-8.29154E-03
 -1       258-6.47276E-03-6.56615E-04-8.50168E-03
 -1       259-5.36949E-03-2.65193E-03-8.46675E-03
 -1       260-3.82034E-03 2.41247E-03-9.46568E-03
 -1       261-9.67140E-03 1.05128E-03-2.32067E-02
 -1       262-6.46626E-03-3.90343E-03-1.73220E-02
 -1       263-2.85288E-02-5.09023E-03-4.20860E-02
 -1       264-4.12383E-02-5.93251E-03-5.07868E-02
 -1       265-1.30528E-02 2.23087E-03-1.45170E-02
 -1       266-6.84087E-03 1.80029E-04-7.75015E-03
 -1       267-1.21699E-02 4.68909E-03-1.45059E-02
 -1       268-6.80344E-03 3.29954E-03-9.46173E-03
 -1       269-1.77566E-02 4.27914E-03-4.20752E-02
 -1       270-8.12514E-03-1.35570E-03-8.33091E-03
 -1       271-1.23650E-02-1.19071E-03-2.83764E-02
 -1       272-8.37982E-03-3.33160E-03-8.49276E-03
 -1       273-1.35800E-02 1.08859E-03-3.60819E-02
 -3
    1PSTEP                         2           1           1          
  100CL  101 1.000000000         273                     0    1           1
 -4  STRESS      6    1
 -5  SXX         1    4    1    1
 -5  SYY         1    4    2    2
 -5  SZZ         1    4    3    3
 -5  SXY         1    4    1    2
 -5  SYZ         1    4    2    3
 -5  SZX         1    4    3    1
 -1         1-9.92799E+02-1.03266E+01 1.12870E+01 6.35273E+00-3.65376E+00 1.40640E+01
 -1         2-1.00963E+03 6.24203E+00-4.13593E+02-5.19558E+00-8.34323E-01 1.45307E+01
 -1         3-9.87583E+02-5.59165E+00 1.35051E+01-2.99331E+00 2.39507E+00 1.55497E+01
 -1         4-1.00585E+03 7.47546E+00-4.07874E+02 4.78494E+00 1.92733E+00 9.88006E+00
 -1         5-3.16595E+03-1.35684E+03-1.35684E+03 5.45967E+02 2.59908E-04-7.39493E+02
 -1         6 3.61126E+02 1.54768E+02 1.54770E+02 1.77788E+02 7.28385E-05-4.55103E+02
 -1         7-2.71780E+03-7.67169E+02-7.88131E+02-4.12000E+02-7.19060E+01-5.46670E+02
 -1         8 4.29778E+02 1.89917E+02 1.85910E+02-1.38311E+02-9.57030E+00-4.47310E+02
 -1         9 7.92557E+02 3.39667E+02 3.39669E+02-3.30872E+01 5.03304E-06-5.31574E+02
 -1        10 2.18619E+02 3.78238E+01-7.41006E+01 6.07550E+01 7.56527E-01-3.30704E+02
 -1        11-4.15417E+02 1.83366E+01-4.75467E+02-3.10067E+00-7.04461E+00-3.88694E+01
 -1        12-8.89472E+02-2.29461E+00-4.10930E+02-4.02744E+00 2.00228E+00-2.17069E+01
 -1        13-1.02983E+03 7.83134E+00-4.23402E+02 5.28824E+00-3.01016E+00 3.67618E+01
 -1        14-1.02984E+03 4.90916E+00-4.37487E+02-2.50222E+00 6.71790E+00 4.95664E+01
 -1        15-4.18343E+02 2.08331E+01-3.87639E+02 1.09954E+00 2.42559E+01-6.43488E+01
 -1        16-8.80106E+02-7.86497E+00-4.20933E+02 2.13729E+00-4.57223E+00-3.02465E+01
 -1        17-2.52417E+03-1.08179E+03-1.08179E+03-9.80363E+01 8.98675E-06-7.86660E+02
 -1        18-2.39740E+03-9.80948E+02-9.53838E+02 9.88214E+01-7.15426E+00-6.84389E+02
 -1        19-1.30507E+03 3.21375E+02 3.17173E+02-8.65616E+01 2.30778E+01 5.46888E+01
 -1        20-1.04624E+03 4.19149E+00 8.81451E+00-1.67448E+01 1.93686E+00-1.96778E+01
 -1        21-9.74798E+02 2.93525E+01 2.74908E+01 4.51538E+00-1.27995E+00 2.84255E+01
 -1        22-9.63355E+02 3.94279E+01 4.17122E+01-9.88626E+00 2.53814E+00 4.43951E+01
 -1        23-1.25645E+03 5.48396E+01 3.00340E+01 7.12371E+01-7.49655E+00-3.96201E+00
 -1        24-1.04453E+03 9.46534E+00 1.30469E+01 1.73160E+01-2.30646E+00-2.33689E+01
 -1        25-9.99970E+02-8.10749E-01-7.93949E+01 2.47666E+00 9.81997E+00-3.00198E+01
 -1        26-9.91739E+02-1.19043E+00-3.40882E+02-4.23890E-01 1.25655E+01-2.99290E+01
 -1        27-1.33096E+03-4.30193E+02-5.24433E+02 3.08415E+02 2.84656E+00-4.28022E+02
 -1        28-1.05320E+03-4.55721E+02-4.16894E+02 2.10627E+02 6.96690E+00-3.23927E+02
 -1        29-1.00441E+03-5.23620E+00-6.30905E+01-2.48347E+00-8.08744E+00-3.42031E+01
 -1        30-9.94995E+02-2.61651E+00-3.45869E+02 1.72595E-01-1.07595E+01-1.92386E+01
 -1        31-1.29090E+03-5.20160E+02-5.33772E+02-3.37343E+02-5.13683E+00-3.80731E+02
 -1        32-1.00895E+03-3.60648E+02-3.88088E+02-2.13828E+02 2.13342E+01-3.24807E+02
 -1        33-2.94917E+02-3.06109E+01-4.72405E+02-2.89717E+01-1.51957E+00-9.74854E+01
 -1        34-7.28091E+02-3.59591E+01-4.26417E+02 1.49359E+01-6.99490E+00-3.70117E+01
 -1        35-8.91480E+02-2.24546E+01-4.24376E+02-1.76291E+00 2.25723E+00 1.24356E+01
 -1        36-1.70093E+03-1.14386E+02 7.10387E+01-3.18489E+01 9.70917E+00-1.52101E+02
 -1        37-1.38101E+03 3.82781E+01 7.95721E+01-2.62660E+01-3.04160E+00-4.83123E+01
 -1        38-1.12633E+03 2.91439E+01 1.45932E+01 2.54217E+01-2.55319E+00-1.61201E+01
 -1        39-1.12531E+03 4.68220E+01-7.29635E+01-3.49235E+01-3.04507E+00-3.05757E+02
 -1        40-9.46801E+02-3.25691E+00-2.42173E+02-1.09610E+01-1.71555E+00-2.06345E+02
 -1        41-8.29967E+02 6.76916E+01-2.35764E+02-1.53500E+01-1.45901E+01-3.72723E+02
 -1        42-1.20474E+03 7.26619E+01-5.69286E+01 3.65056E+01 1.62857E+01-3.27703E+02
 -1        43-9.87005E+02 1.16388E+00-1.74706E+02 1.47449E+01 1.21216E-01-2.37548E+02
 -1        44-8.25734E+02 6.89718E+01-2.23587E+02 3.63825E+00 1.38688E+01-3.91902E+02
 -1        45-1.00238E+03 3.35987E+01-8.94351E+01 5.32438E+00-8.59216E+00-1.80557E+01
 -1        46-9.99282E+02 1.03322E+01-3.64060E+02 8.70433E-01-6.51788E+00-3.90015E+00
 -1        47-1.00498E+03 2.07537E+01-2.02945E+02-3.77504E+00 1.09575E+01-1.72912E+01
 -1        48-1.01080E+03-4.08154E+02-4.36732E+02-9.09475E+01 2.30914E+00-3.75135E+02
 -1        49-6.58991E+02-2.71754E+02-2.54835E+02-5.04202E+01 7.13257E-01-3.31868E+02
 -1        50-8.53032E+02-3.30642E+02-3.55888E+02 8.47024E+01-1.59948E+01-3.77819E+02
 -1        51-1.09171E+03 9.96246E+00-1.11584E+02-1.55521E+01 2.05465E+00-1.58261E+02
 -1        52-9.45291E+02 2.76411E+00-3.04794E+02 1.60738E+00 8.57434E-01-1.56280E+02
 -1        53-1.12623E+03-1.12872E+01-1.34852E+02 1.45281E+01 3.84535E+00-2.49878E+02
 -1        54-9.72088E+02-9.84130E+01-2.71518E+02-1.54334E+00 2.15526E-01-4.07206E+02
 -1        55 6.52882E+02 2.79807E+02 2.79808E+02-9.37971E+01 1.05231E-04-4.95719E+02
 -1        56 7.98199E+02 3.42085E+02 3.42087E+02 1.01644E+01-9.51649E-05-5.21084E+02
 -1        57 5.76154E+02 2.46923E+02 2.46925E+02 1.14037E+02 7.28385E-05-4.65015E+02
 -1        58-3.82850E+01 6.64069E+01-2.64043E+02 7.24464E+01-1.33025E+01-2.22544E+02
 -1        59-7.46036E+02-1.86239E+01-4.35704E+02 2.07822E+01 2.39664E-01-8.94253E+00
 -1        60-9.68241E+02 5.05170E-02-3.89624E+02-1.02744E+01 1.09307E+00-1.21964E+01
 -1        61-1.02768E+03 4.74012E+00-4.21056E+02 5.43977E+00-2.93872E+00 2.45105E+01
 -1        62-1.01712E+03 1.04622E+01-4.15264E+02 2.48085E+00 1.71098E+00 3.60100E+01
 -1        63-1.03748E+03 1.53988E+00-4.31222E+02-4.36863E+00 5.39262E+00 3.25857E+01
 -1        64-3.68378E+01 7.80494E+01-1.53731E+02-5.07358E+01 1.28179E+01-2.42703E+02
 -1        65-7.30801E+02-1.74281E+01-4.22632E+02-1.16294E+01 7.08080E+00-3.05800E+01
 -1        66-9.64438E+02-1.06505E+00-3.90804E+02 8.44107E+00-1.28718E+00-1.52965E+01
 -1        67-2.68542E+03-1.15090E+03-1.15090E+03-2.03166E+02 4.85546E-05-7.78373E+02
 -1        68-2.49380E+03-1.06877E+03-1.06878E+03-1.80240E+01-1.00308E-04-7.65540E+02
 -1        69-2.88714E+03-1.23735E+03-1.23735E+03 3.37140E+02 2.59908E-04-7.56411E+02
 -1        70-2.08457E+03-1.85930E+02-2.06981E+02 1.73320E+02-4.74670E+01-2.74885E+02
 -1        71-1.08351E+03 3.96823E+01 3.50578E+01-5.39880E+01 2.50373E+01-2.49337E+01
 -1        72-1.00578E+03-2.81457E+00-5.22669E+00-1.17767E+00 2.66954E+00-1.06006E+01
 -1        73-9.79878E+02 1.02715E+01 2.10787E+01 2.46091E+00 7.94159E-02 2.30494E+01
 -1        74-9.64745E+02 4.73327E+01 3.58442E+01-2.88193E+00-1.92113E+00 3.28435E+01
 -1        75-9.75928E+02 1.52548E+01 2.84847E+01-3.12359E+00 1.53250E+00 2.88739E+01
 -1        76-2.00219E+03-1.62053E+02-7.13692E+01-1.22428E+02-4.39243E+00-1.63887E+02
 -1        77-1.13223E+03 1.76618E+01 2.25640E+01 3.38247E+01 2.30903E-02-1.35096E+01
 -1        78-1.00318E+03 3.11970E-02-3.38069E+00 4.66479E+00-4.70206E-01-8.26087E+00
 -1        79-1.01162E+03-7.16477E+00-1.71797E+01 1.12570E+00-2.26119E+00-1.44029E+01
 -1        80-1.01515E+03-6.84524E+00-2.09495E+02-3.86478E+00 1.66539E+01-2.86406E+01
 -1        81-9.89571E+02 4.18109E+00-3.91503E+02 2.92304E+00-4.04916E-01-1.37946E+01
 -1        82-2.17667E+03-9.32861E+02-9.32861E+02 4.83258E+02 2.59908E-04-5.58234E+02
 -1        83-1.22452E+03-5.24797E+02-5.24796E+02 2.92137E+02 1.00642E-04-3.29115E+02
 -1        84-5.37790E+02-2.30482E+02-2.30480E+02 2.00347E+02 7.28385E-05-3.50943E+02
 -1        85-1.01025E+03-5.32008E+00-1.32014E+01-3.52579E+00-7.93529E-01-1.15055E+01
 -1        86-9.88807E+02-3.47330E+00-2.02877E+02-1.36013E-01-1.94163E+01-3.21705E+01
 -1        87-9.98669E+02 2.14797E+00-3.92834E+02-3.41101E+00-8.04033E-01-8.91419E+00
 -1        88-1.90071E+03-6.63343E+02-7.69218E+02-3.59711E+02-5.19329E+01-4.96126E+02
 -1        89-1.22722E+03-5.25953E+02-5.25952E+02-3.07274E+02-1.66130E-04-3.23870E+02
 -1        90-3.91772E+02-1.08913E+02-1.50204E+02-1.51621E+02-2.76628E+00-3.61946E+02
 -1        91 9.92674E+01 8.60481E+01-1.82407E+02-7.62468E+01-1.13983E+01-2.67979E+02
 -1        92-3.13917E+02 7.47682E+00-3.89512E+02-1.36734E+01 1.03972E+01-8.93212E+01
 -1        93 1.44299E+02 7.97219E+01-2.45931E+02-2.74639E+01-9.19186E-01-2.57469E+02
 -1        94 4.82971E+01 3.00646E+01-2.87068E+02-2.05451E+01 1.32559E+01-2.17193E+02
 -1        95-1.71916E+01 6.19903E+01-2.77136E+02 6.00885E+01-1.13415E+01-1.67143E+02
 -1        96-6.41204E+02-5.21843E+01-4.59550E+02 4.10358E+01-2.12610E+01-1.55801E+01
 -1        97-8.51831E+02-2.37794E+01-4.26531E+02 6.06284E+00 1.40081E+00-2.12023E+01
 -1        98-9.89285E+02-7.62792E+00-4.25180E+02-4.43996E+00 2.18263E+00 1.45957E+01
 -1        99-9.85023E+02-5.20449E+00-4.13953E+02 6.95802E+00-3.81509E-01 5.61321E+00
 -1       100-1.00984E+03-1.41279E+01-4.16734E+02-2.78507E+00 7.24039E+00 2.18997E+01
 -1       101-1.01264E+03-1.57877E+01-4.22313E+02 3.91514E+00 2.37936E+00 2.17462E+01
 -1       102-9.24308E+02-2.39802E+01-4.35452E+02 6.69259E+00-2.63119E+00 5.15382E+00
 -1       103-7.40436E+02-3.14141E+01-4.31779E+02-1.53158E+01 6.84893E+00-1.67749E+00
 -1       104-1.67438E+02-6.00495E+00-3.25232E+02 3.31702E+01 2.33343E+00-1.58837E+02
 -1       105-9.41560E+02-2.06504E+01-4.08122E+02 1.58879E+00-5.41305E-01-1.33839E+00
 -1       106-6.66329E+02-5.14447E+01-4.36118E+02-2.36002E+01 5.66390E+00-3.00266E+01
 -1       107-8.04283E+02-3.04679E+01-4.20418E+02 3.46099E+00-3.40196E+00-2.11020E+01
 -1       108-5.32266E+02-2.63095E+01-4.20800E+02-1.36685E+01 4.29971E+00-5.94816E+01
 -1       109-2.21639E+03-4.10210E+02-2.81238E+02-1.98343E+02-2.02264E+01-3.03559E+02
 -1       110-2.12692E+03-5.45112E+02-3.73979E+02-6.78439E+01-1.64125E+00-4.36027E+02
 -1       111-2.13108E+03-5.73965E+02-4.63577E+02 2.50643E+01 1.38790E+01-4.53026E+02
 -1       112-1.81729E+03-1.71449E+02-8.50341E+01 2.50144E-01-1.78284E+01-2.70058E+02
 -1       113-1.12742E+03 3.27327E+01 2.45942E+01-2.18594E+01 6.09348E+00-8.67746E+00
 -1       114-1.40934E+03 6.05863E+01 1.24308E+02-7.48483E+01 3.49283E+01 1.52823E+01
 -1       115-9.91680E+02 1.56290E+01 1.47095E+01-1.40758E+01 9.07283E-01 8.21838E+00
 -1       116-9.96989E+02 1.58730E+01 4.84261E+00 1.06491E+01-2.27606E+00-5.53056E-01
 -1       117-1.02153E+03 2.86815E+01 1.45274E+00 1.20123E+01-1.56429E+00-4.82992E+00
 -1       118-1.01756E+03 4.13735E+01 1.43712E+01 4.17146E+00 1.11958E-01 3.73936E+00
 -1       119-1.09267E+03 2.21061E+01 1.80390E+01 2.89006E+01-2.38947E+00-1.29438E+01
 -1       120-1.21519E+03 2.48361E+01 2.28277E+01 3.94544E+01-4.52984E+00 4.48957E+00
 -1       121-1.47256E+03-1.84128E+01-2.63721E+00 4.93748E+01 9.88309E+00-9.89097E+00
 -1       122-1.87965E+03-3.75156E+02-2.83825E+02 3.08980E+01-1.00542E+01-3.21961E+02
 -1       123-1.04241E+03 4.64610E+01 2.00438E+01-2.11576E+01 2.08098E+00 4.61459E+00
 -1       124-1.34297E+03-2.86350E+01 1.73177E+01 5.53620E+00 1.10620E+01-4.36272E+01
 -1       125-1.53217E+03-6.44467E+01 3.64037E+01-1.07301E+01 1.50075E+01-1.20035E+02
 -1       126-1.17427E+03 3.35800E+01 2.74328E+01 7.76649E-01-6.13560E+00-2.59606E+01
 -1       127-1.28852E+03 7.05622E+01-5.96914E+01 1.22179E+02-9.67490E+00-1.81238E+02
 -1       128-1.27822E+03 3.74932E+00-3.30666E+01-3.91585E+01 9.29056E+00-1.80512E+02
 -1       129-1.10445E+03-3.63870E+00-2.70880E+01-2.20783E+01 4.42393E+00-1.48188E+02
 -1       130-1.03482E+03 2.00762E-01-3.97875E+01-5.77449E+00 3.75723E+00-3.48283E+01
 -1       131-9.77079E+02-1.52457E+00-1.64940E+02-1.89002E+00 6.93336E+00-1.16052E+02
 -1       132-9.65368E+02 1.89407E-01-2.83719E+02-6.56858E+00 7.01738E+00-1.14600E+02
 -1       133-9.45707E+02-1.89202E+00-3.68393E+02-1.29833E+00 7.72371E-01-4.00979E+01
 -1       134-7.40319E+02-2.17542E+02-4.66759E+02 5.93569E+01 1.53087E+01-1.97203E+02
 -1       135-7.64444E+02 2.64270E+01-3.15180E+02-6.91382E+00-4.56762E+00-1.92088E+02
 -1       136-5.98674E+02 5.79586E+01-3.19807E+02-2.10701E+01-5.26297E+00-2.40836E+02
 -1       137-8.69443E+02-9.65211E+01-2.49057E+02 7.86733E+01-2.25128E+00-3.69332E+02
 -1       138-1.08476E+03-1.19465E+02-3.02307E+02 1.28950E+02-5.34459E+00-3.65652E+02
 -1       139-1.01798E+03 3.63133E+00-7.80893E+01-1.61609E+01-1.52807E+00-1.56954E+02
 -1       140-8.90097E+02-2.96466E+00-3.38420E+02-6.96345E+00-5.33292E+00-1.24053E+02
 -1       141-1.22301E+03-1.08998E+02-2.36517E+02 1.08227E+02 1.26513E+01-3.91277E+02
 -1       142-9.76492E+02 8.80706E+01-1.67594E+02-3.56615E+01-5.91380E+00-3.51555E+02
 -1       143-8.78660E+02-1.34602E+00-2.60912E+02-1.27976E+01-1.13865E+01-2.90376E+02
 -1       144-9.97899E+02 4.29763E-01-1.53016E+02-1.66245E+01-8.24339E+00-2.54107E+02
 -1       145-1.76806E+03-1.03522E+02-2.16738E+02-1.50977E+02-2.84276E+01-3.55786E+02
 -1       146-1.19810E+03 5.81056E+01-1.39471E+01 6.18783E+01-8.53044E+00-1.76657E+02
 -1       147-1.15644E+03-7.94517E+00-3.86915E+01 1.69517E+01-1.30221E+00-1.65238E+02
 -1       148-1.02490E+03-1.37963E+00-3.03153E+01 1.63687E+00-4.64979E+00-3.58851E+01
 -1       149-9.83521E+02 4.20723E+00-2.57234E+02 9.53748E+00-6.75072E+00-1.21618E+02
 -1       150-1.00948E+03-1.01549E+01-1.34204E+02 4.41806E+00-3.39871E+00-1.33148E+02
 -1       151-9.52212E+02-8.08445E+00-3.77360E+02-4.60706E-01-6.53070E+00-3.26658E+01
 -1       152-6.70327E+02-7.74364E+01-3.59881E+02-8.10470E+01 2.38769E+01-2.18075E+02
 -1       153-5.94897E+02 2.97655E+01-3.05454E+02 7.00160E+00 1.35629E+01-2.47475E+02
 -1       154-7.57223E+02 1.29365E+01-3.22857E+02-1.70193E+00 7.33666E-01-2.06961E+02
 -1       155-8.95611E+02-8.95677E+01-2.67817E+02-1.10206E+02 2.10035E+01-3.71948E+02
 -1       156-1.10018E+03-1.31866E+02-3.29288E+02-1.54156E+02 2.58287E+01-3.63875E+02
 -1       157-1.03965E+03-3.35269E-01-6.16240E+01 7.17251E+00-1.49393E+00-1.47546E+02
 -1       158-8.90882E+02 2.69518E+00-3.11031E+02 1.06791E+01-3.60261E+00-1.55648E+02
 -1       159-1.30315E+03-1.34464E+02-2.72567E+02-1.22306E+02 2.79353E+01-3.57903E+02
 -1       160-1.03558E+03 8.49423E+01-1.43233E+02 2.03794E+01 1.45094E+01-3.78670E+02
 -1       161-1.04702E+03 7.56428E+00-1.06159E+02 1.37011E+01 9.90350E-01-2.83860E+02
 -1       162-9.10884E+02-4.00788E+00-2.14634E+02 1.65481E+01 9.86980E+00-3.13319E+02
 -1       163-9.96734E+02 1.19051E+01-6.99322E+00 1.28175E+00-4.41390E+00-3.38807E+00
 -1       164-1.00236E+03 1.74906E+01-7.39343E+01 3.66975E+00-9.66886E+00-2.37294E+01
 -1       165-1.00232E+03 1.36053E+01-2.17958E+02 3.66187E+00-1.33978E+01-1.53809E+01
 -1       166-1.01607E+03-1.05586E+00-3.99155E+02 1.25594E+00-5.89629E+00 8.52916E+00
 -1       167-1.00367E+03 9.73023E+00-4.01737E+02 2.68776E+00-2.81260E+00 1.65846E+01
 -1       168-9.95686E+02 1.15400E+01-4.06859E+02 1.51313E+00 3.35514E+00 1.86813E+01
 -1       169-1.00795E+03 5.20771E+00-3.94942E+02-5.09740E-01 8.82195E+00 1.18142E+01
 -1       170-9.91040E+02 1.61603E+01-3.71188E+00-1.87542E+00 5.39810E+00 4.91856E+00
 -1       171-1.00889E+03 1.39475E+00-2.83745E+02-3.33522E+00 1.52640E+01-1.65675E+01
 -1       172-1.00081E+03 1.24618E+01-1.31945E+02-3.11469E+00 1.41491E+01-1.68689E+01
 -1       173-9.92137E+02 3.75480E+01-4.08332E+01-5.17623E+00 7.53626E+00 1.12222E+01
 -1       174-9.87712E+02 4.43528E+01-3.93219E+00-1.55903E+00-2.90294E+00 9.50587E+00
 -1       175-9.94598E+02 3.63498E+01-9.83649E+00 4.33578E+00-3.58975E+00-1.02384E+00
 -1       176-9.95902E+02 9.15898E-01-3.62224E+02 3.45512E+00-7.92433E+00-1.02386E+01
 -1       177-1.01323E+03 2.10427E+01-2.23965E+02 2.95645E+00-9.47500E+00-9.60849E+00
 -1       178-1.00843E+03 6.87138E+00-3.55408E+02-5.27119E+00 7.03674E+00 9.85875E+00
 -1       179-1.00314E+03 1.28299E+01-2.89698E+02-4.05073E+00-3.18678E-01-1.25449E+01
 -1       180-9.97265E+02 3.33673E+01-1.33391E+02 3.74634E+00-1.04168E+00-1.65145E+01
 -1       181-1.72330E+03-7.38558E+02-7.38559E+02-2.05884E+02 6.36342E-05-5.72590E+02
 -1       182-1.00176E+03-4.29327E+02-4.29326E+02-1.84168E+02-9.49679E-05-3.38419E+02
 -1       183-1.19261E+03-5.08412E+02-5.09602E+02-2.37972E+02-6.84307E+00-3.83900E+02
 -1       184-1.44185E+02-6.17939E+01-6.17923E+01-9.96688E+01 4.23314E-05-3.75885E+02
 -1       185-4.51257E+00-1.93406E+00-1.93227E+00-3.89592E+01 5.03304E-06-4.11740E+02
 -1       186-2.15075E+02-1.02749E+02-1.27065E+02-1.27228E+01 1.07391E+01-3.46182E+02
 -1       187-4.46435E+02-2.05053E+02-2.18384E+02 1.55189E+02-1.06001E+01-3.27762E+02
 -1       188-1.80311E+03-6.95329E+02-7.22887E+02 2.17678E+02-3.55804E+01-5.48852E+02
 -1       189-1.15684E+03-4.66316E+02-4.47597E+02 2.02605E+02 1.87221E+01-3.99216E+02
 -1       190-9.23976E+02-3.95991E+02-3.95990E+02 1.80871E+02 6.84538E-05-3.31698E+02
 -1       191-1.46868E+03-6.02029E+02-6.21434E+02 8.77648E+01 1.02344E+00-5.04001E+02
 -1       192-1.67145E+03-7.16337E+02-7.16338E+02-9.09473E+01-1.07972E-05-5.63175E+02
 -1       193-8.26689E+02-3.53225E+02-3.21129E+02-1.35048E+02 1.68845E+01-3.23632E+02
 -1       194-5.29162E+02-2.18841E+02-2.24828E+02 7.46020E+01-4.00792E+00-3.46694E+02
 -1       195-1.64108E+03-7.03323E+02-7.03324E+02-1.09349E+01 4.22859E-05-5.42056E+02
 -1       196-8.58721E+02-3.76862E+02-3.99724E+02 1.62080E+01 4.76823E+00-3.66861E+02
 -1       197-8.31021E+02-3.35540E+02-3.50028E+02-7.31286E+01-1.26801E+00-3.53605E+02
 -1       198-7.72384E+02-3.31023E+02-3.31022E+02 5.10223E+00-8.62647E-05-3.46266E+02
 -1       199-9.00712E+02-7.53025E-01-3.69466E+02 2.07775E+00-7.98838E-01-8.86819E+01
 -1       200-9.71622E+02 8.59744E+00-3.58646E+02 3.46301E+00-2.78435E+00-5.15139E+01
 -1       201-8.93052E+02-1.28164E-01-3.63220E+02-1.36729E+00 3.27778E+00-7.73354E+01
 -1       202-9.73737E+02 2.38980E+00-3.16119E+02 5.34983E+00-4.05911E+00-8.21151E+01
 -1       203-9.79468E+02 5.14948E+00-3.29042E+02 1.46394E+00-4.03175E+00-7.66987E+01
 -1       204-1.05913E+03 2.59508E+01-4.07512E+01 1.14297E+01-6.23274E+00-3.07099E+01
 -1       205-1.04227E+03 1.31453E+01-2.93477E+01 1.28581E+01-5.84489E+00-3.47104E+01
 -1       206-1.02853E+03 7.12688E+00-1.00919E+02-5.46418E+00 8.20152E+00-8.85153E+01
 -1       207-1.03122E+03 1.72399E+01-4.19171E+01-1.35094E+01 3.00734E+00-4.92670E+01
 -1       208-1.02064E+03 2.27055E+01-1.48897E+02-8.62154E+00 5.66812E+00-8.54933E+01
 -1       209-9.19666E+02-3.52282E+01-2.80551E+02-2.86205E+00 1.15692E-01-2.79091E+02
 -1       210-1.03180E+03 1.38460E+00-2.12321E+02-4.77405E+00 1.54268E+00-1.74005E+02
 -1       211-8.83548E+02 2.70449E+00-2.88032E+02-3.38449E+00-4.67720E+00-2.58588E+02
 -1       212-1.06885E+03-4.34970E+01-2.02715E+02-1.21341E+00 1.42443E+00-2.88640E+02
 -1       213-9.43872E+02-5.74783E+01-2.82158E+02 1.20065E+01-7.55795E+00-3.69371E+02
 -1       214-9.83496E+02 1.08156E+01-1.90921E+02-1.65434E+01-4.05963E+00-2.72007E+02
 -1       215-1.07578E+03-6.21760E+01-2.18001E+02 7.50905E-01 5.42035E+00-3.31010E+02
 -1       216-9.20193E+02-4.87970E+01-2.58545E+02-1.97733E+01 7.32835E+00-3.90468E+02
 -1       217-1.04474E+03-4.88573E+00-2.16808E+02 7.13085E+00 5.01866E+00-2.10843E+02
 -1       218-8.90243E+02-7.60640E-01-2.92836E+02 4.24388E+00 4.50026E+00-2.65720E+02
 -1       219-9.97927E+02 6.28904E-01-1.92369E+02 1.16381E+01 1.04078E+01-3.20717E+02
 -1       220-1.12045E+03-4.59562E+00-1.20358E+02 2.60396E+00 5.16928E+00-2.08012E+02
 -1       221-1.10288E+03-4.99984E+01-2.12745E+02-1.09801E+01-1.76690E-01-3.59135E+02
 -1       222-1.08878E+03 2.14964E+01-7.83589E+01-2.48458E+01-1.78176E+00-2.18698E+02
 -1       223-1.39873E+03-1.24447E+02-1.64438E+02 9.61457E+01-1.59425E+01-2.51832E+02
 -1       224-1.28492E+03 2.88357E+01-1.14265E+01-2.98422E+01-7.80682E+00-1.75004E+02
 -1       225-1.18151E+03 1.70944E+01-3.33074E+01-1.38122E+01 1.08881E-01-9.75661E+01
 -1       226-1.07805E+03 5.27302E+00-4.94740E+01-1.53123E+01 1.26349E+00-8.50503E+01
 -1       227-1.42553E+03 3.70704E+00 5.39058E+00 1.93244E+01 2.55258E+01-2.26366E+02
 -1       228-1.23895E+03-6.75928E+01-1.37839E+02 3.27106E+00 7.96031E+00-2.68632E+02
 -1       229-1.21688E+03-6.23128E+00-4.13953E+01 6.18459E+00-1.47891E+00-1.48436E+02
 -1       230-1.13580E+03 8.27518E+00-5.48564E+01 1.87231E+01-6.99976E-01-1.30964E+02
 -1       231-1.33392E+03-6.78858E+01-7.33589E+01-8.28179E+00 5.92983E+00-1.94450E+02
 -1       232-1.02234E+03-1.47565E+00-1.79698E+02-1.61061E+01-2.30130E-01-1.86227E+02
 -1       233-1.22389E+03-3.09304E+00-3.96616E+01 2.30255E+01-9.02821E-01-1.51321E+02
 -1       234-1.07969E+03 1.04443E+01-7.19277E+01 1.94165E+01-3.60024E+00-1.37757E+02
 -1       235-1.17507E+03-4.83751E+00-1.11883E+02 1.52087E+01 4.46404E+00-2.82592E+02
 -1       236-1.05093E+03-6.06801E-01-1.49858E+02 1.39157E+01-1.00634E+00-2.38828E+02
 -1       237-1.02950E+03 2.45102E+01-1.01553E+02-4.83436E+00-6.30289E+00-8.69023E+01
 -1       238-1.11714E+03 1.25343E+01-5.32163E+01-5.27116E-01-1.79377E-01-8.69564E+01
 -1       239-1.17488E+03-1.44908E+02-2.68100E+02-4.39519E+01 1.40549E+01-3.79075E+02
 -1       240-9.46079E+02-1.13299E+02-2.87321E+02-5.12530E+01 1.81597E+01-3.73323E+02
 -1       241-9.73040E+02 3.91803E+00-3.46669E+02-7.70219E+00 1.75403E+00-7.16918E+01
 -1       242-9.86179E+02 9.14883E+00-2.25790E+02-5.77251E+00 7.50993E+00-1.05859E+02
 -1       243-9.54080E+02-8.69322E-01-2.74704E+02-8.14754E+00-6.02195E-01-1.79424E+02
 -1       244-9.76248E+02 4.77092E+00-3.65330E+02-1.98426E+00 2.29830E+00-4.90674E+01
 -1       245-9.91053E+02 9.26793E+00-2.57394E+02-1.76343E+00 4.54061E+00-9.09864E+01
 -1       246-4.83870E+02-1.59761E+02-3.95950E+02-3.33801E+01-3.32921E+00-2.11141E+02
 -1       247-6.39065E+02-5.76685E+01-3.31261E+02-9.18462E+00-2.58654E+00-2.69897E+02
 -1       248-8.07718E+02-1.65906E+02-2.41499E+02-2.65798E+01 1.32591E+00-3.66454E+02
 -1       249-4.74250E+02-7.58311E+01-2.26426E+02 1.57066E+01 6.32746E+00-3.50617E+02
 -1       250-5.89395E+02-1.49717E+02-3.81283E+02-1.11654E+02 1.52491E+01-2.36204E+02
 -1       251-9.85188E+02 1.57935E+01-2.01385E+02 4.11459E+00-2.75847E+00-8.99741E+01
 -1       252-1.04565E+03 1.33294E+01-1.15155E+02 1.07393E+01-7.40232E-01-1.37097E+02
 -1       253-1.15037E+03-7.00189E+01-2.05059E+02-8.65803E+00 5.70771E+00-3.78042E+02
 -1       254-1.31053E+03-1.25784E+02-1.53529E+02-2.37816E+01 3.37402E+00-3.19200E+02
 -1       255-7.71751E+02-1.19022E+01-3.50115E+02 9.79619E+00-1.04982E+01-2.02854E+02
 -1       256-7.98878E+02 1.01459E+01-3.27838E+02-4.56776E-01 4.07556E+00-1.89448E+02
 -1       257-9.27117E+02-1.93839E+02-3.17124E+02 3.34888E+01-1.15624E+01-3.95188E+02
 -1       258-9.97748E+02-2.30606E+02-3.46853E+02-3.26793E+01 7.07461E+00-3.93590E+02
 -1       259-7.45379E+02-7.27573E+01-2.10968E+02-4.33773E+01 5.15401E+00-3.74261E+02
 -1       260-4.37639E+02-1.66203E-01-2.28223E+02 4.66166E+01-1.27487E+01-3.31026E+02
 -1       261-8.16707E+02-6.51817E+01-3.39507E+02 8.70702E+00-4.76321E+00-2.27669E+02
 -1       262-5.73417E+02 1.32387E+01-3.30965E+02-2.20105E+01 1.78509E+00-2.63798E+02
 -1       263-9.78464E+02-4.77562E-02-2.44527E+02 1.45959E+01 2.50849E+00-1.91322E+02
 -1       264-1.00592E+03 1.12731E+01-1.46292E+02 9.48458E+00-3.68516E+00-1.16796E+02
 -1       265-1.19446E+03-1.17448E+02-1.29939E+02 2.36923E+01-2.18282E+01-2.62900E+02
 -1       266-1.24952E+03-2.37461E+02-1.76865E+02 4.19208E+00-2.40316E+01-3.06402E+02
 -1       267-1.04204E+03-9.88191E+01-2.20246E+02 1.91807E+01-8.31626E+00-3.62878E+02
 -1       268-8.72293E+02-9.63031E+01-2.59991E+02 4.91726E+01-1.85942E+01-3.53525E+02
 -1       269-9.00817E+02-1.02751E+00-3.63605E+02-1.98018E+00 2.97080E-01-8.34594E+01
 -1       270-1.38517E+03-2.64310E+02-1.77705E+02-7.40401E+01-5.93904E+00-2.94944E+02
 -1       271-8.38263E+02-4.21694E+01-3.18487E+02-7.99697E+00 1.84298E+00-2.09337E+02
 -1       272-1.45274E+03-2.41275E+02-1.12815E+02-1.68889E+02 6.16523E-02-2.63693E+02
 -1       273-8.37134E+02-1.20805E+01-3.61721E+02 6.31241E+00-2.25574E+00-1.05778E+02
 -3
    1PSTEP                         3           1           1          
  100CL  101 1.000000000         273                     0    1           1
 -4  TOSTRAIN    6    1
 -5  EXX         1    4    1    1
 -5  EYY         1    4    2    2
 -5  EZZ         1    4    3    3
 -5  EXY         1    4    1    2
 -5  EYZ         1    4    2    3
 -5  EZX         1    4    3    1
 -1         1-4.96544E-03 1.42063E-03 1.56112E-03 4.12927E-05-2.37494E-05 9.14158E-05
 -1         2-4.43713E-03 2.16605E-03-5.62882E-04-3.37713E-05-5.42310E-06 9.44494E-05
 -1         3-4.94979E-03 1.43316E-03 1.55729E-03-1.94565E-05 1.55679E-05 1.01073E-04
 -1         4-4.42867E-03 2.15797E-03-5.41805E-04 3.11021E-05 1.25276E-05 6.42204E-05
 -1         5-1.17592E-02-1.37309E-08-1.29817E-08 3.54879E-03 1.68940E-09-4.80670E-03
 -1         6 1.34133E-03-4.30119E-09 7.45988E-09 1.15562E-03 4.73450E-10-2.95817E-03
 -1         7-1.12561E-02 1.42305E-03 1.28680E-03-2.67800E-03-4.67389E-04-3.55335E-03
 -1         8 1.58515E-03 2.60524E-05 8.03171E-09-8.99021E-04-6.22070E-05-2.90751E-03
 -1         9 2.94378E-03-3.01734E-09 8.57299E-09-2.15067E-04 3.27148E-11-3.45523E-03
 -1        10 1.14751E-03-2.76587E-05-7.55167E-04 3.94908E-04 4.91743E-06-2.14958E-03
 -1        11-1.39139E-03 1.42801E-03-1.78172E-03-2.01543E-05-4.57900E-05-2.52651E-04
 -1        12-3.82752E-03 1.93913E-03-7.17001E-04-2.61784E-05 1.30148E-05-1.41095E-04
 -1        13-4.52577E-03 2.21900E-03-5.84018E-04 3.43736E-05-1.95660E-05 2.38951E-04
 -1        14-4.50034E-03 2.22554E-03-6.50037E-04-1.62645E-05 4.36663E-05 3.22182E-04
 -1        15-1.54151E-03 1.31314E-03-1.34193E-03 7.14701E-06 1.57663E-04-4.18267E-04
 -1        16-3.75733E-03 1.91223E-03-7.72707E-04 1.38924E-05-2.97195E-05-1.96602E-04
 -1        17-9.37547E-03-5.61680E-09-1.17076E-08-6.37236E-04 5.84139E-11-5.11329E-03
 -1        18-9.08481E-03 1.22114E-04 2.98328E-04 6.42339E-04-4.65027E-05-4.44853E-03
 -1        19-7.48319E-03 3.08873E-03 3.06141E-03-5.62650E-04 1.50006E-04 3.55477E-04
 -1        20-5.25071E-03 1.57710E-03 1.60715E-03-1.08841E-04 1.25896E-05-1.27906E-04
 -1        21-4.95925E-03 1.56772E-03 1.55562E-03 2.93499E-05-8.31964E-06 1.84765E-04
 -1        22-4.93848E-03 1.57960E-03 1.59445E-03-6.42607E-05 1.64979E-05 2.88568E-04
 -1        23-6.40955E-03 2.11382E-03 1.95258E-03 4.63041E-04-4.87276E-05-2.57531E-05
 -1        24-5.25640E-03 1.59455E-03 1.61783E-03 1.12554E-04-1.49920E-05-1.51898E-04
 -1        25-4.87954E-03 1.61499E-03 1.10420E-03 1.60983E-05 6.38298E-05-1.95129E-04
 -1        26-4.44559E-03 1.99298E-03-2.15016E-04-2.75529E-06 8.16758E-05-1.94539E-04
 -1        27-5.22286E-03 6.32120E-04 1.95651E-05 2.00470E-03 1.85026E-05-2.78215E-03
 -1        28-3.95710E-03-7.34601E-05 1.78918E-04 1.36907E-03 4.52848E-05-2.10553E-03
 -1        29-4.91957E-03 1.57507E-03 1.19902E-03-1.61426E-05-5.25684E-05-2.22320E-04
 -1        30-4.45225E-03 1.99821E-03-2.32926E-04 1.12187E-06-6.99368E-05-1.25051E-04
 -1        31-4.87361E-03 1.36212E-04 4.77313E-05-2.19273E-03-3.33894E-05-2.47475E-03
 -1        32-3.92163E-03 2.92309E-04 1.13954E-04-1.38988E-03 1.38672E-04-2.11125E-03
 -1        33-7.20061E-04 9.97929E-04-1.87374E-03-1.88316E-04-9.87722E-06-6.33655E-04
 -1        34-2.94689E-03 1.55197E-03-9.86009E-04 9.70835E-05-4.54668E-05-2.40576E-04
 -1        35-3.78716E-03 1.86151E-03-7.50975E-04-1.14589E-05 1.46720E-05 8.08314E-05
 -1        36-8.43964E-03 1.87291E-03 3.07817E-03-2.07018E-04 6.31096E-05-9.88659E-04
 -1        37-7.08185E-03 2.14355E-03 2.41197E-03-1.70729E-04-1.97704E-05-3.14030E-04
 -1        38-5.69725E-03 1.81332E-03 1.71874E-03 1.65241E-04-1.65957E-05-1.04781E-04
 -1        39-5.58732E-03 2.03151E-03 1.25291E-03-2.27002E-04-1.97929E-05-1.98742E-03
 -1        40-4.36586E-03 1.76718E-03 2.14221E-04-7.12465E-05-1.11511E-05-1.34124E-03
 -1        41-3.89772E-03 1.93705E-03-3.54065E-05-9.97749E-05-9.48354E-05-2.42270E-03
 -1        42-6.04732E-03 2.25582E-03 1.41348E-03 2.37286E-04 1.05857E-04-2.13007E-03
 -1        43-4.67471E-03 1.74839E-03 6.05230E-04 9.58419E-05 7.87903E-07-1.54406E-03
 -1        44-3.89675E-03 1.91884E-03 1.72067E-05 2.36487E-05 9.01473E-05-2.54736E-03
 -1        45-4.92814E-03 1.80572E-03 1.00600E-03 3.46085E-05-5.58490E-05-1.17362E-04
 -1        46-4.46582E-03 2.09667E-03-3.36877E-04 5.65782E-06-4.23662E-05-2.53510E-05
 -1        47-4.75162E-03 1.91566E-03 4.61615E-04-2.45377E-05 7.12241E-05-1.12393E-04
 -1        48-3.78666E-03 1.30524E-04-5.52327E-05-5.91159E-04 1.50094E-05-2.43838E-03
 -1        49-2.50507E-03 1.19678E-05 1.21944E-04-3.27732E-04 4.63617E-06-2.15714E-03
 -1        50-3.23536E-03 1.60170E-04-3.92917E-06 5.50566E-04-1.03967E-04-2.45582E-03
 -1        51-5.30613E-03 1.85476E-03 1.06470E-03-1.01089E-04 1.33552E-05-1.02869E-03
 -1        52-4.27341E-03 1.88895E-03-1.10180E-04 1.04480E-05 5.57332E-06-1.01582E-03
 -1        53-5.41195E-03 1.83519E-03 1.03202E-03 9.44324E-05 2.49948E-05-1.62421E-03
 -1        54-4.30554E-03 1.37334E-03 2.48160E-04-1.00317E-05 1.40092E-06-2.64684E-03
 -1        55 2.42499E-03-3.52851E-09 8.68699E-09-6.09681E-04 6.84002E-10-3.22217E-03
 -1        56 2.96473E-03-2.50616E-09 8.45899E-09 6.60687E-05-6.18572E-10-3.38704E-03
 -1        57 2.14000E-03-4.30119E-09 7.45988E-09 7.41237E-04 4.73450E-10-3.02260E-03
 -1        58 1.05030E-04 7.85527E-04-1.36240E-03 4.70902E-04-8.64663E-05-1.44654E-03
 -1        59-3.04869E-03 1.67949E-03-1.03153E-03 1.35084E-04 1.55782E-06-5.81264E-05
 -1        60-4.25685E-03 2.03705E-03-4.95835E-04-6.67835E-05 7.10494E-06-7.92767E-05
 -1        61-4.51395E-03 2.19681E-03-5.70866E-04 3.53585E-05-1.91017E-05 1.59318E-04
 -1        62-4.47837E-03 2.20088E-03-5.66338E-04 1.61255E-05 1.11214E-05 2.34065E-04
 -1        63-4.54286E-03 2.21075E-03-6.02202E-04-2.83961E-05 3.50520E-05 2.11807E-04
 -1        64-7.06665E-05 6.76100E-04-8.30473E-04-3.29783E-04 8.33166E-05-1.57757E-03
 -1        65-2.99392E-03 1.64301E-03-9.90816E-04-7.55912E-05 4.60252E-05-1.98770E-04
 -1        66-4.23439E-03 2.02754E-03-5.05765E-04 5.48669E-05-8.36664E-06-9.94273E-05
 -1        67-9.97440E-03-5.97944E-09-1.21066E-08-1.32058E-03 3.15605E-10-5.05942E-03
 -1        68-9.26269E-03-4.78202E-09-1.14324E-08-1.17156E-04-6.52003E-10-4.97601E-03
 -1        69-1.07236E-02-1.37309E-08-1.29817E-08 2.19141E-03 1.68940E-09-4.91667E-03
 -1        70-9.83350E-03 2.50768E-03 2.37085E-03 1.12658E-03-3.08535E-04-1.78676E-03
 -1        71-5.52966E-03 1.77109E-03 1.74103E-03-3.50922E-04 1.62743E-04-1.62069E-04
 -1        72-5.01685E-03 1.50244E-03 1.48676E-03-7.65488E-06 1.73520E-05-6.89039E-05
 -1        73-4.94641E-03 1.48956E-03 1.55980E-03 1.59959E-05 5.16203E-07 1.49821E-04
 -1        74-4.94849E-03 1.63001E-03 1.55534E-03-1.87326E-05-1.24874E-05 2.13483E-04
 -1        75-4.94525E-03 1.49744E-03 1.58343E-03-2.03034E-05 9.96125E-06 1.87680E-04
 -1        76-9.66083E-03 2.30008E-03 2.88952E-03-7.95783E-04-2.85508E-05-1.06527E-03
 -1        77-5.72151E-03 1.75282E-03 1.78468E-03 2.19860E-04 1.50087E-07-8.78126E-05
 -1        78-5.01088E-03 1.51000E-03 1.48782E-03 3.03211E-05-3.05634E-06-5.36956E-05
 -1        79-5.02156E-03 1.50737E-03 1.44227E-03 7.31707E-06-1.46977E-05-9.36187E-05
 -1        80-4.75122E-03 1.80274E-03 4.85511E-04-2.51211E-05 1.08250E-04-1.86164E-04
 -1        81-4.36687E-03 2.09252E-03-4.79432E-04 1.89998E-05-2.63195E-06-8.96649E-05
 -1        82-8.08475E-03-1.37309E-08-1.29817E-08 3.14118E-03 1.68940E-09-3.62852E-03
 -1        83-4.54822E-03-5.66427E-09-1.66348E-09 1.89889E-03 6.54173E-10-2.13925E-03
 -1        84-1.99751E-03-4.30119E-09 7.45988E-09 1.30226E-03 4.73450E-10-2.28113E-03
 -1        85-5.02345E-03 1.50857E-03 1.45734E-03-2.29177E-05-5.15794E-06-7.47856E-05
 -1        86-4.63451E-03 1.77016E-03 4.74034E-04-8.84083E-07-1.26206E-04-2.09108E-04
 -1        87-4.40732E-03 2.09799E-03-4.69387E-04-2.21716E-05-5.22622E-06-5.79422E-05
 -1        88-7.35469E-03 6.88172E-04-1.44454E-08-2.33812E-03-3.37564E-04-3.22482E-03
 -1        89-4.55824E-03-6.88273E-09-8.18729E-10-1.99728E-03-1.07984E-09-2.10515E-03
 -1        90-1.57018E-03 2.68398E-04 7.70407E-09-9.85534E-04-1.79808E-05-2.35265E-03
 -1        91 6.40875E-04 5.54949E-04-1.19001E-03-4.95604E-04-7.40889E-05-1.74186E-03
 -1        92-9.96531E-04 1.09253E-03-1.48790E-03-8.88769E-05 6.75815E-05-5.80588E-04
 -1        93 9.70811E-04 5.51057E-04-1.56569E-03-1.78515E-04-5.97471E-06-1.67355E-03
 -1        94 6.26991E-04 5.08480E-04-1.55288E-03-1.33543E-04 8.61630E-05-1.41176E-03
 -1        95 2.36760E-04 7.51442E-04-1.45288E-03 3.90575E-04-7.37196E-05-1.08643E-03
 -1        96-2.43842E-03 1.39021E-03-1.25767E-03 2.66732E-04-1.38196E-04-1.01271E-04
 -1        97-3.58369E-03 1.79865E-03-8.19240E-04 3.94084E-05 9.10524E-06-1.37815E-04
 -1        98-4.29721E-03 2.08356E-03-6.30531E-04-2.88598E-05 1.41871E-05 9.48722E-05
 -1        99-4.29638E-03 2.07244E-03-5.84424E-04 4.52271E-05-2.47981E-06 3.64858E-05
 -1       100-4.40288E-03 2.06921E-03-5.47728E-04-1.81029E-05 4.70625E-05 1.42348E-04
 -1       101-4.40606E-03 2.07349E-03-5.68920E-04 2.54484E-05 1.54659E-05 1.41350E-04
 -1       102-3.93239E-03 1.91974E-03-7.54827E-04 4.35019E-05-1.71028E-05 3.34999E-05
 -1       103-3.00739E-03 1.60125E-03-1.00112E-03-9.95525E-05 4.45181E-05-1.09037E-05
 -1       104-3.40336E-04 7.08981E-04-1.36600E-03 2.15606E-04 1.51673E-05-1.03244E-03
 -1       105-4.06464E-03 1.92127E-03-5.97292E-04 1.03271E-05-3.51848E-06-8.69954E-06
 -1       106-2.60030E-03 1.39645E-03-1.10393E-03-1.53401E-04 3.68153E-05-1.95173E-04
 -1       107-3.34508E-03 1.68471E-03-8.49964E-04 2.24964E-05-2.21128E-05-1.37163E-04
 -1       108-1.99067E-03 1.29805E-03-1.26613E-03-8.88451E-05 2.79481E-05-3.86631E-04
 -1       109-1.00448E-02 1.69538E-03 2.53370E-03-1.28923E-03-1.31472E-04-1.97313E-03
 -1       110-9.25599E-03 1.02580E-03 2.13816E-03-4.40985E-04-1.06681E-05-2.83418E-03
 -1       111-9.09907E-03 1.02215E-03 1.73968E-03 1.62918E-04 9.02138E-05-2.94467E-03
 -1       112-8.70173E-03 1.99625E-03 2.55794E-03 1.62593E-06-1.15884E-04-1.75537E-03
 -1       113-5.72309E-03 1.81790E-03 1.76500E-03-1.42086E-04 3.96076E-05-5.64035E-05
 -1       114-7.32403E-03 2.23048E-03 2.64467E-03-4.86514E-04 2.27034E-04 9.93352E-05
 -1       115-5.00391E-03 1.54360E-03 1.53762E-03-9.14928E-05 5.89734E-06 5.34194E-05
 -1       116-5.01602E-03 1.56759E-03 1.49589E-03 6.92195E-05-1.47944E-05-3.59487E-06
 -1       117-5.15284E-03 1.67352E-03 1.49653E-03 7.80800E-05-1.01679E-05-3.13945E-05
 -1       118-5.17143E-03 1.71165E-03 1.53614E-03 2.71145E-05 7.27728E-07 2.43058E-05
 -1       119-5.52355E-03 1.72247E-03 1.69604E-03 1.87854E-04-1.55315E-05-8.41348E-05
 -1       120-6.14743E-03 1.91272E-03 1.89966E-03 2.56454E-04-2.94440E-05 2.91822E-05
 -1       121-7.33121E-03 2.12073E-03 2.22327E-03 3.20936E-04 6.42401E-05-6.42913E-05
 -1       122-8.40979E-03 1.36944E-03 1.96309E-03 2.00837E-04-6.53521E-05-2.09274E-03
 -1       123-5.31180E-03 1.76585E-03 1.59414E-03-1.37524E-04 1.35264E-05 2.99948E-05
 -1       124-6.69789E-03 1.84531E-03 2.14400E-03 3.59853E-05 7.19029E-05-2.83577E-04
 -1       125-7.61879E-03 1.92142E-03 2.57694E-03-6.97455E-05 9.75486E-05-7.80230E-04
 -1       126-5.96288E-03 1.88816E-03 1.84820E-03 5.04822E-06-3.98814E-05-1.68744E-04
 -1       127-6.45889E-03 2.37512E-03 1.52847E-03 7.94165E-04-6.28868E-05-1.17805E-03
 -1       128-6.34712E-03 1.98567E-03 1.74637E-03-2.54530E-04 6.03886E-05-1.17333E-03
 -1       129-5.47617E-03 1.67912E-03 1.52670E-03-1.43509E-04 2.87555E-05-9.63220E-04
 -1       130-5.11473E-03 1.61292E-03 1.35299E-03-3.75342E-05 2.44220E-05-2.26384E-04
 -1       131-4.63570E-03 1.70541E-03 6.43206E-04-1.22852E-05 4.50668E-05-7.54340E-04
 -1       132-4.40154E-03 1.87458E-03 2.91742E-05-4.26958E-05 4.56130E-05-7.44897E-04
 -1       133-4.17311E-03 1.96169E-03-4.20565E-04-8.43913E-06 5.02041E-06-2.60637E-04
 -1       134-2.67514E-03 7.22906E-04-8.97002E-04 3.85820E-04 9.95067E-05-1.28182E-03
 -1       135-3.38909E-03 1.75157E-03-4.68873E-04-4.49398E-05-2.96895E-05-1.24857E-03
 -1       136-2.60060E-03 1.66751E-03-7.87964E-04-1.36955E-04-3.42093E-05-1.56543E-03
 -1       137-3.82885E-03 1.19515E-03 2.03659E-04 5.11376E-04-1.46333E-05-2.40066E-03
 -1       138-4.79115E-03 1.48328E-03 2.94805E-04 8.38173E-04-3.47399E-05-2.37674E-03
 -1       139-4.97823E-03 1.66227E-03 1.13108E-03-1.05046E-04-9.93247E-06-1.02020E-03
 -1       140-3.93841E-03 1.82795E-03-3.52506E-04-4.52624E-05-3.46640E-05-8.06342E-04
 -1       141-5.59676E-03 1.64429E-03 8.15422E-04 7.03476E-04 8.22337E-05-2.54330E-03
 -1       142-4.76318E-03 2.15648E-03 4.94663E-04-2.31799E-04-3.84397E-05-2.28511E-03
 -1       143-3.99991E-03 1.70263E-03 1.54474E-05-8.31844E-05-7.40124E-05-1.88744E-03
 -1       144-4.76062E-03 1.72852E-03 7.31123E-04-1.08059E-04-5.35820E-05-1.65170E-03
 -1       145-8.35990E-03 2.45959E-03 1.72368E-03-9.81352E-04-1.84780E-04-2.31261E-03
 -1       146-6.05672E-03 2.10859E-03 1.64025E-03 4.02209E-04-5.54478E-05-1.14827E-03
 -1       147-5.71226E-03 1.75298E-03 1.55312E-03 1.10186E-04-8.46437E-06-1.07404E-03
 -1       148-5.07698E-03 1.57593E-03 1.38785E-03 1.06396E-05-3.02237E-05-2.33253E-04
 -1       149-4.53807E-03 1.88217E-03 1.82803E-04 6.19936E-05-4.38797E-05-7.90515E-04
 -1       150-4.83085E-03 1.66475E-03 8.58428E-04 2.87174E-05-2.20916E-05-8.65461E-04
 -1       151-4.18289E-03 1.95394E-03-4.46357E-04-2.99459E-06-4.24496E-05-2.12328E-04
 -1       152-2.69566E-03 1.15813E-03-6.77760E-04-5.26806E-04 1.55200E-04-1.41749E-03
 -1       153-2.56095E-03 1.49935E-03-6.79574E-04 4.55104E-05 8.81591E-05-1.60858E-03
 -1       154-3.32124E-03 1.68480E-03-4.97853E-04-1.10625E-05 4.76883E-06-1.34525E-03
 -1       155-3.94198E-03 1.29730E-03 1.38684E-04-7.16339E-04 1.36523E-04-2.41766E-03
 -1       156-4.80919E-03 1.48488E-03 2.01632E-04-1.00202E-03 1.67886E-04-2.36519E-03
 -1       157-5.10532E-03 1.65024E-03 1.25186E-03 4.66213E-05-9.71058E-06-9.59048E-04
 -1       158-3.99191E-03 1.81635E-03-2.22877E-04 6.94140E-05-2.34170E-05-1.01171E-03
 -1       159-5.90523E-03 1.69126E-03 7.93593E-04-7.94991E-04 1.81579E-04-2.32637E-03
 -1       160-5.09046E-03 2.19293E-03 7.09791E-04 1.32466E-04 9.43111E-05-2.46136E-03
 -1       161-5.08722E-03 1.76759E-03 1.02839E-03 8.90572E-05 6.43728E-06-1.84509E-03
 -1       162-4.22646E-03 1.66824E-03 2.99167E-04 1.07562E-04 6.41537E-05-2.03657E-03
 -1       163-4.99104E-03 1.56512E-03 1.44228E-03 8.33137E-06-2.86903E-05-2.20224E-05
 -1       164-4.92712E-03 1.70189E-03 1.10763E-03 2.38534E-05-6.28476E-05-1.54241E-04
 -1       165-4.70509E-03 1.89845E-03 3.93291E-04 2.38022E-05-8.70854E-05-9.99761E-05
 -1       166-4.48004E-03 2.11756E-03-4.70086E-04 8.16360E-06-3.83259E-05 5.54395E-05
 -1       167-4.43034E-03 2.15676E-03-5.17776E-04 1.74704E-05-1.82819E-05 1.07800E-04
 -1       168-4.38545E-03 2.16152E-03-5.58075E-04 9.83534E-06 2.18084E-05 1.21428E-04
 -1       169-4.45513E-03 2.13037E-03-4.70601E-04-3.31331E-06 5.73427E-05 7.67920E-05
 -1       170-4.97387E-03 1.57293E-03 1.44376E-03-1.21903E-05 3.50877E-05 3.19706E-05
 -1       171-4.62092E-03 1.94593E-03 9.25179E-05-2.16790E-05 9.92157E-05-1.07689E-04
 -1       172-4.82483E-03 1.76144E-03 8.22800E-04-2.02455E-05 9.19692E-05-1.09648E-04
 -1       173-4.95576E-03 1.73720E-03 1.22772E-03-3.36455E-05 4.89857E-05 7.29441E-05
 -1       174-4.99919E-03 1.70923E-03 1.39538E-03-1.01337E-05-1.88691E-05 6.17882E-05
 -1       175-5.01276E-03 1.68840E-03 1.38819E-03 2.81825E-05-2.33334E-05-6.65495E-06
 -1       176-4.43755E-03 2.04177E-03-3.18639E-04 2.24583E-05-5.15081E-05-6.65508E-05
 -1       177-4.76177E-03 1.96101E-03 3.68457E-04 1.92169E-05-6.15875E-05-6.24552E-05
 -1       178-4.51933E-03 2.08011E-03-2.74709E-04-3.42627E-05 4.57388E-05 6.40818E-05
 -1       179-4.60038E-03 2.00340E-03 3.69677E-05-2.63297E-05-2.07141E-06-8.15415E-05
 -1       180-4.83629E-03 1.86282E-03 7.78890E-04 2.43512E-05-6.77090E-06-1.07344E-04
 -1       181-6.40081E-03-6.03418E-09-1.18452E-08-1.33824E-03 4.13622E-10-3.72183E-03
 -1       182-3.72082E-03-6.37873E-09-8.83900E-10-1.19709E-03-6.17291E-10-2.19972E-03
 -1       183-4.43603E-03 1.12586E-05 3.52397E-06-1.54682E-03-4.44799E-05-2.49535E-03
 -1       184-5.35547E-04-3.20058E-09 7.05870E-09-6.47847E-04 2.75154E-10-2.44325E-03
 -1       185-1.67634E-05-3.01734E-09 8.57299E-09-2.53234E-04 3.27148E-11-2.67631E-03
 -1       186-7.30654E-04-5.36896E-07-1.58589E-04-8.26985E-05 6.98041E-05-2.25018E-03
 -1       187-1.59702E-03-2.80390E-05-1.14688E-04 1.00873E-03-6.89004E-05-2.13045E-03
 -1       188-6.88820E-03 3.12343E-04 1.33218E-04 1.41491E-03-2.31272E-04-3.56754E-03
 -1       189-4.41335E-03 7.50799E-05 1.96754E-04 1.31694E-03 1.21694E-04-2.59490E-03
 -1       190-3.43191E-03-6.45259E-09-8.69785E-10 1.17566E-03 4.44950E-10-2.15604E-03
 -1       191-5.50818E-03 1.25018E-04-1.11558E-06 5.70471E-04 6.65234E-06-3.27600E-03
 -1       192-6.20823E-03-5.43547E-09-1.15081E-08-5.91158E-04-7.01816E-11-3.66064E-03
 -1       193-3.12191E-03-4.43973E-05 1.64224E-04-8.77811E-04 1.09749E-04-2.10361E-03
 -1       194-1.98031E-03 3.67811E-05-2.13717E-06 4.84913E-04-2.60515E-05-2.25351E-03
 -1       195-6.09544E-03-4.94520E-09-9.85625E-09-7.10767E-05 2.74858E-10-3.52336E-03
 -1       196-3.12873E-03 3.35638E-06-1.45246E-04 1.05352E-04 3.09935E-05-2.38460E-03
 -1       197-3.12675E-03 9.38724E-05-2.98469E-07-4.75336E-04-8.24207E-06-2.29843E-03
 -1       198-2.86885E-03-4.87965E-09-9.30992E-10 3.31645E-05-5.60721E-10-2.25073E-03
 -1       199-3.94823E-03 1.90150E-03-4.95131E-04 1.35054E-05-5.19244E-06-5.76433E-04
 -1       200-4.33304E-03 2.03839E-03-3.48692E-04 2.25096E-05-1.80983E-05-3.34840E-04
 -1       201-3.92024E-03 1.88377E-03-4.76329E-04-8.88741E-06 2.13056E-05-5.02680E-04
 -1       202-4.39809E-03 1.94673E-03-1.23576E-04 3.47739E-05-2.63842E-05-5.33748E-04
 -1       203-4.41150E-03 1.98851E-03-1.83731E-04 9.51561E-06-2.62064E-05-4.98542E-04
 -1       204-5.27347E-03 1.77958E-03 1.34602E-03 7.42932E-05-4.05128E-05-1.99614E-04
 -1       205-5.18703E-03 1.67315E-03 1.39694E-03 8.35779E-05-3.79918E-05-2.25617E-04
 -1       206-5.00196E-03 1.72981E-03 1.02751E-03-3.55172E-05 5.33099E-05-5.75349E-04
 -1       207-5.11909E-03 1.69591E-03 1.31139E-03-8.78111E-05 1.95477E-05-3.20236E-04
 -1       208-4.91391E-03 1.86783E-03 7.52414E-04-5.60400E-05 3.68428E-05-5.55707E-04
 -1       209-4.12466E-03 1.62418E-03 2.95863E-05-1.86033E-05 7.52001E-07-1.81409E-03
 -1       210-4.84260E-03 1.87311E-03 4.84021E-04-3.10313E-05 1.00274E-05-1.13103E-03
 -1       211-3.98975E-03 1.77089E-03-1.18893E-04-2.19992E-05-3.04018E-05-1.68082E-03
 -1       212-4.97492E-03 1.68986E-03 6.54945E-04-7.88714E-06 9.25882E-06-1.87616E-03
 -1       213-4.20991E-03 1.55165E-03 9.12358E-05 7.80420E-05-4.91267E-05-2.40091E-03
 -1       214-4.64732E-03 1.81570E-03 5.04417E-04-1.07532E-04-2.63876E-05-1.76805E-03
 -1       215-4.95865E-03 1.62980E-03 6.16935E-04 4.88088E-06 3.52323E-05-2.15157E-03
 -1       216-4.13995E-03 1.52412E-03 1.60762E-04-1.28526E-04 4.76343E-05-2.53804E-03
 -1       217-4.89115E-03 1.86789E-03 4.90395E-04 4.63505E-05 3.26213E-05-1.37048E-03
 -1       218-4.01082E-03 1.77081E-03-1.27676E-04 2.75852E-05 2.92517E-05-1.72718E-03
 -1       219-4.70202E-03 1.78859E-03 5.34102E-04 7.56479E-05 6.76508E-05-2.08466E-03
 -1       220-5.41483E-03 1.83824E-03 1.08578E-03 1.69257E-05 3.36003E-05-1.35208E-03
 -1       221-5.12028E-03 1.72344E-03 6.65591E-04-7.13703E-05-1.14848E-06-2.33438E-03
 -1       222-5.35862E-03 1.85819E-03 1.20914E-03-1.61498E-04-1.15815E-05-1.42154E-03
 -1       223-6.56033E-03 1.72252E-03 1.46258E-03 6.24947E-04-1.03626E-04-1.63691E-03
 -1       224-6.45072E-03 2.08870E-03 1.82700E-03-1.93974E-04-5.07444E-05-1.13753E-03
 -1       225-5.88325E-03 1.90770E-03 1.58009E-03-8.97791E-05 7.07725E-07-6.34180E-04
 -1       226-5.32395E-03 1.71765E-03 1.36180E-03-9.95300E-05 8.21270E-06-5.52827E-04
 -1       227-7.14132E-03 2.14875E-03 2.15969E-03 1.25608E-04 1.65918E-04-1.47138E-03
 -1       228-5.88661E-03 1.72722E-03 1.27062E-03 2.12619E-05 5.17420E-05-1.74611E-03
 -1       229-6.01296E-03 1.85626E-03 1.62769E-03 4.01998E-05-9.61289E-06-9.64837E-04
 -1       230-5.60912E-03 1.82736E-03 1.41700E-03 1.21700E-04-4.54984E-06-8.51264E-04
 -1       231-6.45774E-03 1.77149E-03 1.73592E-03-5.38317E-05 3.85439E-05-1.26392E-03
 -1       232-4.83995E-03 1.79568E-03 6.37234E-04-1.04689E-04-1.49584E-06-1.21047E-03
 -1       233-6.05533E-03 1.87987E-03 1.64217E-03 1.49666E-04-5.86834E-06-9.83584E-04
 -1       234-5.30620E-03 1.77964E-03 1.24422E-03 1.26207E-04-2.34016E-05-8.95422E-04
 -1       235-5.70027E-03 1.90624E-03 1.21045E-03 9.88567E-05 2.90163E-05-1.83685E-03
 -1       236-5.02898E-03 1.79815E-03 8.28022E-04 9.04521E-05-6.54121E-06-1.55238E-03
 -1       237-5.03194E-03 1.81913E-03 9.99721E-04-3.14233E-05-4.09688E-05-5.64865E-04
 -1       238-5.52470E-03 1.81821E-03 1.39083E-03-3.42625E-06-1.16595E-06-5.65217E-04
 -1       239-5.25488E-03 1.43993E-03 6.39179E-04-2.85687E-04 9.13567E-05-2.46399E-03
 -1       240-4.12947E-03 1.28361E-03 1.52459E-04-3.33145E-04 1.18038E-04-2.42660E-03
 -1       241-4.35107E-03 1.99915E-03-2.79662E-04-5.00643E-05 1.14012E-05-4.65997E-04
 -1       242-4.60593E-03 1.86370E-03 3.36593E-04-3.75213E-05 4.88145E-05-6.88081E-04
 -1       243-4.35704E-03 1.83883E-03 5.89017E-05-5.29590E-05-3.91427E-06-1.16626E-03
 -1       244-4.34040E-03 2.03622E-03-3.69435E-04-1.28977E-05 1.49390E-05-3.18938E-04
 -1       245-4.58308E-03 1.91901E-03 1.85708E-04-1.14623E-05 2.95140E-05-5.91412E-04
 -1       246-1.58578E-03 5.20922E-04-1.01430E-03-2.16971E-04-2.16398E-05-1.37242E-03
 -1       247-2.61193E-03 1.16715E-03-6.11203E-04-5.97000E-05-1.68125E-05-1.75433E-03
 -1       248-3.42748E-03 7.44295E-04 2.52942E-04-1.72769E-04 8.61844E-06-2.38195E-03
 -1       249-1.91787E-03 6.71859E-04-3.07007E-04 1.02093E-04 4.11285E-05-2.27901E-03
 -1       250-2.15047E-03 7.07434E-04-7.97749E-04-7.25750E-04 9.91193E-05-1.53533E-03
 -1       251-4.64756E-03 1.85883E-03 4.47168E-04 2.67448E-05-1.79301E-05-5.84832E-04
 -1       252-5.07551E-03 1.80785E-03 9.72706E-04 6.98057E-05-4.81151E-06-8.91130E-04
 -1       253-5.33922E-03 1.68304E-03 8.05283E-04-5.62772E-05 3.71001E-05-2.45727E-03
 -1       254-6.13366E-03 1.56716E-03 1.38682E-03-1.54580E-04 2.19311E-05-2.07480E-03
 -1       255-3.31573E-03 1.62329E-03-5.75097E-04 6.36753E-05-6.82384E-05-1.31855E-03
 -1       256-3.51785E-03 1.74080E-03-4.56094E-04-2.96904E-06 2.64912E-05-1.23141E-03
 -1       257-3.86914E-03 8.97166E-04 9.58127E-05 2.17677E-04-7.51555E-05-2.56872E-03
 -1       258-4.12255E-03 8.63870E-04 1.08264E-04-2.12415E-04 4.59850E-05-2.55834E-03
 -1       259-3.30130E-03 1.07073E-03 1.72363E-04-2.81953E-04 3.35011E-05-2.43269E-03
 -1       260-1.84561E-03 9.97962E-04-4.84405E-04 3.03008E-04-8.28664E-05-2.15167E-03
 -1       261-3.47650E-03 1.40841E-03-3.74703E-04 5.65956E-05-3.09609E-05-1.47985E-03
 -1       262-2.39050E-03 1.42277E-03-8.14556E-04-1.43068E-04 1.16031E-05-1.71469E-03
 -1       263-4.52546E-03 1.83425E-03 2.45131E-04 9.48732E-05 1.63052E-05-1.24359E-03
 -1       264-4.82708E-03 1.78469E-03 7.60512E-04 6.16498E-05-2.39535E-05-7.59176E-04
 -1       265-5.60120E-03 1.39935E-03 1.31816E-03 1.54000E-04-1.41883E-04-1.70885E-03
 -1       266-5.62609E-03 9.52267E-04 1.34614E-03 2.72485E-05-1.56205E-04-1.99161E-03
 -1       267-4.73161E-03 1.39934E-03 6.10060E-04 1.24675E-04-5.40557E-05-2.35871E-03
 -1       268-3.82702E-03 1.21691E-03 1.52938E-04 3.19622E-04-1.20862E-04-2.29792E-03
 -1       269-3.95713E-03 1.89150E-03-4.65261E-04-1.28712E-05 1.93102E-06-5.42486E-04
 -1       270-6.26284E-03 1.02277E-03 1.58570E-03-4.81261E-04-3.86038E-05-1.91713E-03
 -1       271-3.65033E-03 1.52428E-03-2.71785E-04-5.19803E-05 1.19794E-05-1.36069E-03
 -1       272-6.73256E-03 1.14196E-03 1.97695E-03-1.09778E-03 4.00740E-07-1.71400E-03
 -1       273-3.62497E-03 1.73788E-03-5.34780E-04 4.10307E-05-1.46623E-05-6.87560E-04
 -3
 9999
